13
cr_co6__mc_dist__+0.03 AL perturbation candidate - not relaxed
Cr      0.000000000000000      0.000000000000000      0.000000000000000
C       1.948000000000000      0.000000000000000      0.000000000000000
O       3.119000000000000      0.000000000000000      0.000000000000000
C      -1.948000000000000      0.000000000000000      0.000000000000000
O      -3.119000000000000      0.000000000000000      0.000000000000000
C       0.000000000000000      1.948000000000000      0.000000000000000
O       0.000000000000000      3.119000000000000      0.000000000000000
C       0.000000000000000     -1.948000000000000      0.000000000000000
O       0.000000000000000     -3.119000000000000      0.000000000000000
C       0.000000000000000      0.000000000000000      1.948000000000000
O       0.000000000000000      0.000000000000000      3.119000000000000
C       0.000000000000000      0.000000000000000     -1.948000000000000
O       0.000000000000000      0.000000000000000     -3.119000000000000
