11
fe_co5__eq_fe_c__+0.03 AL perturbation candidate - not relaxed
Fe      0.000000000000000      0.000000000000000      0.000000000000000
C       0.000000000000000      0.000000000000000      1.807000000000000
O       0.000000000000000      0.000000000000000      2.950000000000000
C       0.000000000000000      0.000000000000000     -1.807000000000000
O       0.000000000000000      0.000000000000000     -2.950000000000000
C       1.857000000000000      0.000000000000000      0.000000000000000
O       3.010000000000000      0.000000000000000      0.000000000000000
C      -0.928500000000000      1.608209174827703      0.000000000000000
O      -1.504999999999999      2.606736465391160      0.000000000000000
C      -0.928500000000001     -1.608209174827702      0.000000000000000
O      -1.505000000000001     -2.606736465391160      0.000000000000000
