11
fe_co5__eq_angle_perturb_deg__+6 AL perturbation candidate - not relaxed
Fe      0.000000000000000      0.000000000000000      0.000000000000000
C       0.000000000000000      0.000000000000000      1.807000000000000
O       0.000000000000000      0.000000000000000      2.950000000000000
C       0.000000000000000      0.000000000000000     -1.807000000000000
O       0.000000000000000      0.000000000000000     -2.950000000000000
C       1.816991502837835      0.190973502390003      0.000000000000000
O       2.963675248197454      0.311494820537607      0.000000000000000
C      -0.913500000000000      1.582228412714169      0.000000000000000
O      -1.489999999999999      2.580755703277627      0.000000000000000
C      -0.913500000000001     -1.582228412714169      0.000000000000000
O      -1.490000000000001     -2.580755703277627      0.000000000000000
