11
fe_co5__berry_tilt_deg__+10 AL perturbation candidate - not relaxed
Fe      0.000000000000000      0.000000000000000      0.000000000000000
C       0.313782257044143      0.000000000000000      1.779547609693060
O       0.512262124117445      0.000000000000000      2.905182871386014
C      -0.313782257044143      0.000000000000000     -1.779547609693060
O      -0.512262124117445      0.000000000000000     -2.905182871386014
C       1.827000000000000      0.000000000000000      0.000000000000000
O       2.980000000000000      0.000000000000000      0.000000000000000
C      -0.913500000000000      1.582228412714169      0.000000000000000
O      -1.489999999999999      2.580755703277627      0.000000000000000
C      -0.913500000000001     -1.582228412714169      0.000000000000000
O      -1.490000000000001     -2.580755703277627      0.000000000000000
