11
fe_co5__berry_tilt_deg__+20 AL perturbation candidate - not relaxed
Fe      0.000000000000000      0.000000000000000      0.000000000000000
C       0.618030398989483      0.000000000000000      1.698024565760136
O       1.008959422810723      0.000000000000000      2.772093231318430
C      -0.618030398989483      0.000000000000000     -1.698024565760136
O      -1.008959422810723      0.000000000000000     -2.772093231318430
C       1.827000000000000      0.000000000000000      0.000000000000000
O       2.980000000000000      0.000000000000000      0.000000000000000
C      -0.913500000000000      1.582228412714169      0.000000000000000
O      -1.489999999999999      2.580755703277627      0.000000000000000
C      -0.913500000000001     -1.582228412714169      0.000000000000000
O      -1.490000000000001     -2.580755703277627      0.000000000000000
