11
fe_co5__eq_fe_c__+0.06 AL perturbation candidate - not relaxed
Fe      0.000000000000000      0.000000000000000      0.000000000000000
C       0.000000000000000      0.000000000000000      1.807000000000000
O       0.000000000000000      0.000000000000000      2.950000000000000
C       0.000000000000000      0.000000000000000     -1.807000000000000
O       0.000000000000000      0.000000000000000     -2.950000000000000
C       1.887000000000000      0.000000000000000      0.000000000000000
O       3.040000000000000      0.000000000000000      0.000000000000000
C      -0.943500000000000      1.634189936941236      0.000000000000000
O      -1.519999999999999      2.632717227504694      0.000000000000000
C      -0.943500000000001     -1.634189936941235      0.000000000000000
O      -1.520000000000001     -2.632717227504693      0.000000000000000
