21
ferrocene__cc_bond__+0.03 AL perturbation candidate - not relaxed
Fe      0.000000000000000      0.000000000000000      0.000000000000000
C       1.216430655943417      0.000000000000000      1.660000000000000
C       0.375897745165181      1.156894301956175      1.660000000000000
C      -0.984113073136889      0.715000000000000      1.660000000000000
C      -0.984113073136889     -0.715000000000000      1.660000000000000
C       0.375897745165180     -1.156894301956175      1.660000000000000
H       2.306430655943417      0.000000000000000      1.660000000000000
H       0.712726269033873      2.193545904717892      1.660000000000000
H      -1.865941597005581      1.355685924998796      1.660000000000000
H      -1.865941597005582     -1.355685924998796      1.660000000000000
H       0.712726269033873     -2.193545904717892      1.660000000000000
C       1.216430655943417      0.000000000000000     -1.660000000000000
C       0.375897745165181      1.156894301956175     -1.660000000000000
C      -0.984113073136889      0.715000000000000     -1.660000000000000
C      -0.984113073136889     -0.715000000000000     -1.660000000000000
C       0.375897745165180     -1.156894301956175     -1.660000000000000
H       2.306430655943417      0.000000000000000     -1.660000000000000
H       0.712726269033873      2.193545904717892     -1.660000000000000
H      -1.865941597005581      1.355685924998796     -1.660000000000000
H      -1.865941597005582     -1.355685924998796     -1.660000000000000
H       0.712726269033873     -2.193545904717892     -1.660000000000000
