21
ferrocene__ring2_rotation_deg__+27 AL perturbation candidate - not relaxed
Fe      0.000000000000000      0.000000000000000      0.000000000000000
C       1.190911131692856      0.000000000000000      1.660000000000000
C       0.368011778483394      1.132623792124926      1.660000000000000
C      -0.963467344329821      0.700000000000000      1.660000000000000
C      -0.963467344329821     -0.700000000000000      1.660000000000000
C       0.368011778483393     -1.132623792124926      1.660000000000000
H       2.280911131692856      0.000000000000000      1.660000000000000
H       0.704840302352086      2.169275394886644      1.660000000000000
H      -1.845295868198514      1.340685924998796      1.660000000000000
H      -1.845295868198514     -1.340685924998795      1.660000000000000
H       0.704840302352086     -2.169275394886644      1.660000000000000
C       1.061109588066887      0.540662339822629     -1.660000000000000
C      -0.186299545796828      1.176249039457994     -1.660000000000000
C      -1.176249039457994      0.186299545796828     -1.660000000000000
C      -0.540662339822629     -1.061109588066887     -1.660000000000000
C       0.842101337010564     -0.842101337010564     -1.660000000000000
H       2.032306699432208      1.035511984538735     -1.660000000000000
H      -0.356813112690679      2.252829330706695     -1.660000000000000
H      -2.252829330706694      0.356813112690680     -1.660000000000000
H      -1.035511984538735     -2.032306699432208     -1.660000000000000
H       1.612847728503900     -1.612847728503901     -1.660000000000000
