21
ferrocene__cc_bond__+0.015 AL perturbation candidate - not relaxed
Fe      0.000000000000000      0.000000000000000      0.000000000000000
C       1.203670893818136      0.000000000000000      1.660000000000000
C       0.371954761824287      1.144759047040550      1.660000000000000
C      -0.973790208733355      0.707500000000000      1.660000000000000
C      -0.973790208733355     -0.707500000000000      1.660000000000000
C       0.371954761824287     -1.144759047040551      1.660000000000000
H       2.293670893818136      0.000000000000000      1.660000000000000
H       0.708783285692980      2.181410649802268      1.660000000000000
H      -1.855618732602048      1.348185924998796      1.660000000000000
H      -1.855618732602048     -1.348185924998796      1.660000000000000
H       0.708783285692979     -2.181410649802268      1.660000000000000
C       1.203670893818136      0.000000000000000     -1.660000000000000
C       0.371954761824287      1.144759047040550     -1.660000000000000
C      -0.973790208733355      0.707500000000000     -1.660000000000000
C      -0.973790208733355     -0.707500000000000     -1.660000000000000
C       0.371954761824287     -1.144759047040551     -1.660000000000000
H       2.293670893818136      0.000000000000000     -1.660000000000000
H       0.708783285692980      2.181410649802268     -1.660000000000000
H      -1.855618732602048      1.348185924998796     -1.660000000000000
H      -1.855618732602048     -1.348185924998796     -1.660000000000000
H       0.708783285692979     -2.181410649802268     -1.660000000000000
