21
ferrocene__fe_cp_dist__+0.05 AL perturbation candidate - not relaxed
Fe      0.000000000000000      0.000000000000000      0.000000000000000
C       1.190911131692856      0.000000000000000      1.710000000000000
C       0.368011778483394      1.132623792124926      1.710000000000000
C      -0.963467344329821      0.700000000000000      1.710000000000000
C      -0.963467344329821     -0.700000000000000      1.710000000000000
C       0.368011778483393     -1.132623792124926      1.710000000000000
H       2.280911131692856      0.000000000000000      1.710000000000000
H       0.704840302352086      2.169275394886644      1.710000000000000
H      -1.845295868198514      1.340685924998796      1.710000000000000
H      -1.845295868198514     -1.340685924998795      1.710000000000000
H       0.704840302352086     -2.169275394886644      1.710000000000000
C       1.190911131692856      0.000000000000000     -1.710000000000000
C       0.368011778483394      1.132623792124926     -1.710000000000000
C      -0.963467344329821      0.700000000000000     -1.710000000000000
C      -0.963467344329821     -0.700000000000000     -1.710000000000000
C       0.368011778483393     -1.132623792124926     -1.710000000000000
H       2.280911131692856      0.000000000000000     -1.710000000000000
H       0.704840302352086      2.169275394886644     -1.710000000000000
H      -1.845295868198514      1.340685924998796     -1.710000000000000
H      -1.845295868198514     -1.340685924998795     -1.710000000000000
H       0.704840302352086     -2.169275394886644     -1.710000000000000
