9
ni_co4__mc_dist__+0.03 AL perturbation candidate - not relaxed
Ni      0.000000000000000      0.000000000000000      0.000000000000000
C       1.078490302846221      1.078490302846221      1.078490302846221
O       1.729164056222930      1.729164056222930      1.729164056222930
C       1.078490302846221     -1.078490302846221     -1.078490302846221
O       1.729164056222930     -1.729164056222930     -1.729164056222930
C      -1.078490302846221      1.078490302846221     -1.078490302846221
O      -1.729164056222930      1.729164056222930     -1.729164056222930
C      -1.078490302846221     -1.078490302846221      1.078490302846221
O      -1.729164056222930     -1.729164056222930      1.729164056222930
