9
ni_co4__tetra_angle_perturb_deg__+3 AL perturbation candidate - not relaxed
Ni      0.000000000000000      0.000000000000000      0.000000000000000
C       1.138257152159421      1.020444671591244      1.020444671591244
O       1.836198289528120      1.646147144324287      1.646147144324287
C       1.061169794770532     -1.061169794770532     -1.061169794770532
O       1.711843548147240     -1.711843548147240     -1.711843548147240
C      -1.061169794770532      1.061169794770532     -1.061169794770532
O      -1.711843548147240      1.711843548147240     -1.711843548147240
C      -1.061169794770532     -1.061169794770532      1.061169794770532
O      -1.711843548147240     -1.711843548147240      1.711843548147240
