9
ni_co4__co_dist__+0.02 AL perturbation candidate - not relaxed
Ni      0.000000000000000      0.000000000000000      0.000000000000000
C       1.061169794770532      1.061169794770532      1.061169794770532
O       1.723390553531033      1.723390553531033      1.723390553531033
C       1.061169794770532     -1.061169794770532     -1.061169794770532
O       1.723390553531033     -1.723390553531033     -1.723390553531033
C      -1.061169794770532      1.061169794770532     -1.061169794770532
O      -1.723390553531033      1.723390553531033     -1.723390553531033
C      -1.061169794770532     -1.061169794770532      1.061169794770532
O      -1.723390553531033     -1.723390553531033      1.723390553531033
