9
ni_co4__tetra_angle_perturb_deg__+6 AL perturbation candidate - not relaxed
Ni      0.000000000000000      0.000000000000000      0.000000000000000
C       1.212224625813526      0.976922580497364      0.976922580497364
O       1.955520139029980      1.575938765601025      1.575938765601025
C       1.061169794770532     -1.061169794770532     -1.061169794770532
O       1.711843548147240     -1.711843548147240     -1.711843548147240
C      -1.061169794770532      1.061169794770532     -1.061169794770532
O      -1.711843548147240      1.711843548147240     -1.711843548147240
C      -1.061169794770532     -1.061169794770532      1.061169794770532
O      -1.711843548147240     -1.711843548147240      1.711843548147240
