9
ni_co4__mc_dist__+0.06 AL perturbation candidate - not relaxed
Ni      0.000000000000000      0.000000000000000      0.000000000000000
C       1.095810810921910      1.095810810921910      1.095810810921910
O       1.746484564298618      1.746484564298618      1.746484564298618
C       1.095810810921910     -1.095810810921910     -1.095810810921910
O       1.746484564298618     -1.746484564298618     -1.746484564298618
C      -1.095810810921910      1.095810810921910     -1.095810810921910
O      -1.746484564298618      1.746484564298618     -1.746484564298618
C      -1.095810810921910     -1.095810810921910      1.095810810921910
O      -1.746484564298618     -1.746484564298618      1.746484564298618
