
     Program PWSCF v.7.4.1 starts on 30Jun2026 at  4: 9:35 

     This program is part of the open-source Quantum ESPRESSO suite
     for quantum simulation of materials; please cite
         "P. Giannozzi et al., J. Phys.:Condens. Matter 21 395502 (2009);
         "P. Giannozzi et al., J. Phys.:Condens. Matter 29 465901 (2017);
         "P. Giannozzi et al., J. Chem. Phys. 152 154105 (2020);
          URL http://www.quantum-espresso.org", 
     in publications or presentations arising from this work. More details at
     http://www.quantum-espresso.org/quote

     Parallel version (MPI), running on     4 processors

     MPI processes distributed on     1 nodes
     14726 MiB available memory on the printing compute node when the environment starts

     Reading input from qe/inputs/relax/ni_co4__mc_dist__+0.06.in

     Current dimensions of program PWSCF are:
     Max number of different atomic species (ntypx) = 10
     Max number of k-points (npk) =  40000
     Max angular momentum in pseudopotentials (lmaxx) =  4
     file C.pbe-n-kjpaw_psl.1.0.0.UPF: wavefunction(s)  2S 2P renormalized
     file O.pbe-n-kjpaw_psl.0.1.UPF: wavefunction(s)  2P renormalized

     gamma-point specific algorithms are used

     R & G space division:  proc/nbgrp/npool/nimage =       4
     Subspace diagonalization in iterative solution of the eigenvalue problem:
     a serial algorithm will be used


     Parallelization info
     --------------------
     sticks:   dense  smooth     PW     G-vecs:    dense   smooth      PW
     Min        8188    4096   1022              1113970   393840   49234
     Max        8192    4098   1024              1113972   393842   49240
     Sum       32761   16389   4093              4455885  1575365  196949

     Using Slab Decomposition



     bravais-lattice index     =            1
     lattice parameter (alat)  =      29.2775  a.u.
     unit-cell volume          =   25095.7724 (a.u.)^3
     number of atoms/cell      =            9
     number of atomic types    =            3
     number of electrons       =        58.00
     number of Kohn-Sham states=           29
     kinetic-energy cutoff     =      60.0000  Ry
     charge density cutoff     =     480.0000  Ry
     scf convergence threshold =      1.0E-08
     mixing beta               =       0.3000
     number of iterations used =            8  plain     mixing
     energy convergence thresh.=      1.0E-05
     force convergence thresh. =      1.0E-04
     Exchange-correlation= SLA  PW   PBX  PBC
                           (   1   4   3   4   0   0   0)
     nstep                     =           50

     Assuming isolated system, Martyna-Tuckerman method


     celldm(1)=  29.277469  celldm(2)=   0.000000  celldm(3)=   0.000000
     celldm(4)=   0.000000  celldm(5)=   0.000000  celldm(6)=   0.000000

     crystal axes: (cart. coord. in units of alat)
               a(1) = (   1.000000   0.000000   0.000000 )  
               a(2) = (   0.000000   1.000000   0.000000 )  
               a(3) = (   0.000000   0.000000   1.000000 )  

     reciprocal axes: (cart. coord. in units 2 pi/alat)
               b(1) = (  1.000000  0.000000  0.000000 )  
               b(2) = (  0.000000  1.000000  0.000000 )  
               b(3) = (  0.000000  0.000000  1.000000 )  


     PseudoPot. # 1 for C  read from file:
     /mnt/d/Rifat_kh/SSSP_1.3.0_PBE_efficiency/C.pbe-n-kjpaw_psl.1.0.0.UPF
     MD5 check sum: 5d2aebdfa2cae82b50a7e79e9516da0f
     Pseudo is Projector augmented-wave + core cor, Zval =  4.0
     Generated using "atomic" code by A. Dal Corso  v.5.1
     Shape of augmentation charge: PSQ
     Using radial grid of 1073 points,  4 beta functions with: 
                l(1) =   0
                l(2) =   0
                l(3) =   1
                l(4) =   1
     Q(r) pseudized with 0 coefficients 


     PseudoPot. # 2 for Ni read from file:
     /mnt/d/Rifat_kh/SSSP_1.3.0_PBE_efficiency/ni_pbe_v1.4.uspp.F.UPF
     MD5 check sum: 1ee80287db30b12d2bc1f57a5b5d6409
     Pseudo is Ultrasoft + core correction, Zval = 18.0
     Generated by new atomic code, or converted to UPF format
     Using radial grid of  865 points,  6 beta functions with: 
                l(1) =   0
                l(2) =   0
                l(3) =   1
                l(4) =   1
                l(5) =   2
                l(6) =   2
     Q(r) pseudized with 10 coefficients,  rinner =    0.980   0.980   0.980
                                                       0.980   0.980

     PseudoPot. # 3 for O  read from file:
     /mnt/d/Rifat_kh/SSSP_1.3.0_PBE_efficiency/O.pbe-n-kjpaw_psl.0.1.UPF
     MD5 check sum: 0234752ac141de4415c5fc33072bef88
     Pseudo is Projector augmented-wave + core cor, Zval =  6.0
     Generated using "atomic" code by A. Dal Corso  v.5.0.99 svn rev. 10869
     Shape of augmentation charge: BESSEL
     Using radial grid of 1095 points,  4 beta functions with: 
                l(1) =   0
                l(2) =   0
                l(3) =   1
                l(4) =   1
     Q(r) pseudized with 0 coefficients 


     atomic species   valence    mass     pseudopotential
     C                 4.00    12.01100     C ( 1.00)
     Ni               18.00    58.69340     Ni( 1.00)
     O                 6.00    15.99900     O ( 1.00)

     24 Sym. Ops. (no inversion) found



   Cartesian axes

     site n.     atom                  positions (alat units)
         1        Ni     tau(   1) = (   0.5000000   0.5000000   0.5000000  )
         2        C      tau(   2) = (   0.5707296   0.5707296   0.5707296  )
         3        O      tau(   3) = (   0.6127276   0.6127276   0.6127276  )
         4        C      tau(   4) = (   0.5707296   0.4292704   0.4292704  )
         5        O      tau(   5) = (   0.6127276   0.3872724   0.3872724  )
         6        C      tau(   6) = (   0.4292704   0.5707296   0.4292704  )
         7        O      tau(   7) = (   0.3872724   0.6127276   0.3872724  )
         8        C      tau(   8) = (   0.4292704   0.4292704   0.5707296  )
         9        O      tau(   9) = (   0.3872724   0.3872724   0.6127276  )

     number of k points=     1
                       cart. coord. in units 2pi/alat
        k(    1) = (   0.0000000   0.0000000   0.0000000), wk =   2.0000000

     Dense  grid:  2227943 G-vectors     FFT dimensions: ( 216, 216, 216)

     Smooth grid:   787683 G-vectors     FFT dimensions: ( 150, 150, 150)

     Estimated max dynamical RAM per process >       2.10 GB

     Estimated total dynamical RAM >       8.41 GB

     Initial potential from superposition of free atoms

     starting charge      55.9998, renormalised to      58.0000

     negative rho (up, down):  1.835E-03 0.000E+00
     Starting wfcs are   45 randomized atomic wfcs
     Checking if some PAW data can be deallocated... 

     total cpu time spent up to now is        8.5 secs

     Self-consistent Calculation

     iteration #  1     ecut=    60.00 Ry     beta= 0.30
     Davidson diagonalization with overlap
     ethr =  1.00E-02,  avg # of iterations =  3.0

     negative rho (up, down):  1.669E-03 0.000E+00

     total cpu time spent up to now is       22.6 secs

     total energy              =    -580.95351555 Ry
     estimated scf accuracy    <       7.69018013 Ry

     iteration #  2     ecut=    60.00 Ry     beta= 0.30
     Davidson diagonalization with overlap
     ethr =  1.00E-02,  avg # of iterations =  4.0

     negative rho (up, down):  2.163E-03 0.000E+00

     total cpu time spent up to now is       34.0 secs

     total energy              =    -583.41327081 Ry
     estimated scf accuracy    <       7.29754744 Ry

     iteration #  3     ecut=    60.00 Ry     beta= 0.30
     Davidson diagonalization with overlap
     ethr =  1.00E-02,  avg # of iterations =  2.0

     negative rho (up, down):  2.517E-03 0.000E+00

     total cpu time spent up to now is       44.6 secs

     total energy              =    -581.93625943 Ry
     estimated scf accuracy    <       3.02247061 Ry

     iteration #  4     ecut=    60.00 Ry     beta= 0.30
     Davidson diagonalization with overlap
     ethr =  5.21E-03,  avg # of iterations =  8.0

     negative rho (up, down):  3.006E-03 0.000E+00

     total cpu time spent up to now is       60.3 secs

     total energy              =    -581.01581254 Ry
     estimated scf accuracy    <      47.29321042 Ry

     iteration #  5     ecut=    60.00 Ry     beta= 0.30
     Davidson diagonalization with overlap
     ethr =  5.21E-03,  avg # of iterations =  6.0

     negative rho (up, down):  3.401E-03 0.000E+00

     total cpu time spent up to now is       72.2 secs

     total energy              =    -583.56627694 Ry
     estimated scf accuracy    <       0.41372393 Ry

     iteration #  6     ecut=    60.00 Ry     beta= 0.30
     Davidson diagonalization with overlap
     ethr =  7.13E-04,  avg # of iterations =  4.0

     negative rho (up, down):  3.803E-03 0.000E+00

     total cpu time spent up to now is       83.2 secs

     total energy              =    -583.59255452 Ry
     estimated scf accuracy    <       0.32504062 Ry

     iteration #  7     ecut=    60.00 Ry     beta= 0.30
     Davidson diagonalization with overlap
     ethr =  5.60E-04,  avg # of iterations =  6.0

     negative rho (up, down):  4.690E-03 0.000E+00

     total cpu time spent up to now is       97.7 secs

     total energy              =    -584.11634598 Ry
     estimated scf accuracy    <       2.24546824 Ry

     iteration #  8     ecut=    60.00 Ry     beta= 0.30
     Davidson diagonalization with overlap
     ethr =  5.60E-04,  avg # of iterations =  7.0

     negative rho (up, down):  5.219E-03 0.000E+00

     total cpu time spent up to now is      110.0 secs

     total energy              =    -584.22110349 Ry
     estimated scf accuracy    <      12.95664299 Ry

     iteration #  9     ecut=    60.00 Ry     beta= 0.30
     Davidson diagonalization with overlap
     ethr =  5.60E-04,  avg # of iterations =  1.0

     negative rho (up, down):  2.877E-01 0.000E+00

     total cpu time spent up to now is      120.3 secs

     total energy              =    -579.85180570 Ry
     estimated scf accuracy    <      12.60618837 Ry

     iteration # 10     ecut=    60.00 Ry     beta= 0.30
     Davidson diagonalization with overlap
     ethr =  5.60E-04,  avg # of iterations = 10.0

     negative rho (up, down):  3.369E-02 0.000E+00

     total cpu time spent up to now is      138.4 secs

     total energy              =    -585.38083559 Ry
     estimated scf accuracy    <      37.92831739 Ry

     iteration # 11     ecut=    60.00 Ry     beta= 0.30
     Davidson diagonalization with overlap
     ethr =  5.60E-04,  avg # of iterations =  6.0

     negative rho (up, down):  7.299E-03 0.000E+00

     total cpu time spent up to now is      150.7 secs

     total energy              =    -582.94415561 Ry
     estimated scf accuracy    <      16.46847054 Ry

     iteration # 12     ecut=    60.00 Ry     beta= 0.30
     Davidson diagonalization with overlap
     ethr =  5.60E-04,  avg # of iterations =  6.0

     negative rho (up, down):  4.573E-03 0.000E+00

     total cpu time spent up to now is      166.6 secs

     total energy              =    -583.88650689 Ry
     estimated scf accuracy    <       4.42755808 Ry

     iteration # 13     ecut=    60.00 Ry     beta= 0.30
     Davidson diagonalization with overlap
     ethr =  5.60E-04,  avg # of iterations =  3.0

     negative rho (up, down):  5.404E-03 0.000E+00

     total cpu time spent up to now is      177.8 secs

     total energy              =    -584.20354150 Ry
     estimated scf accuracy    <       3.35628526 Ry

     iteration # 14     ecut=    60.00 Ry     beta= 0.30
     Davidson diagonalization with overlap
     ethr =  5.60E-04,  avg # of iterations =  1.0

     negative rho (up, down):  4.192E-03 0.000E+00

     total cpu time spent up to now is      188.0 secs

     total energy              =    -583.31675904 Ry
     estimated scf accuracy    <       3.77758816 Ry

     iteration # 15     ecut=    60.00 Ry     beta= 0.30
     Davidson diagonalization with overlap
     ethr =  5.60E-04,  avg # of iterations =  6.0

     negative rho (up, down):  4.081E-03 0.000E+00

     total cpu time spent up to now is      203.3 secs

     total energy              =    -583.69088807 Ry
     estimated scf accuracy    <       0.31479654 Ry

     iteration # 16     ecut=    60.00 Ry     beta= 0.30
     Davidson diagonalization with overlap
     ethr =  5.43E-04,  avg # of iterations =  5.0

     negative rho (up, down):  4.395E-03 0.000E+00

     total cpu time spent up to now is      214.8 secs

     total energy              =    -583.95970361 Ry
     estimated scf accuracy    <       0.87252944 Ry

     iteration # 17     ecut=    60.00 Ry     beta= 0.30
     Davidson diagonalization with overlap
     ethr =  5.43E-04,  avg # of iterations =  2.0

     negative rho (up, down):  4.804E-03 0.000E+00

     total cpu time spent up to now is      226.0 secs

     total energy              =    -583.83000873 Ry
     estimated scf accuracy    <       1.57840348 Ry

     iteration # 18     ecut=    60.00 Ry     beta= 0.30
     Davidson diagonalization with overlap
     ethr =  5.43E-04,  avg # of iterations =  1.0

     negative rho (up, down):  5.050E-03 0.000E+00

     total cpu time spent up to now is      239.7 secs

     total energy              =    -583.67588695 Ry
     estimated scf accuracy    <       1.36243006 Ry

     iteration # 19     ecut=    60.00 Ry     beta= 0.30
     Davidson diagonalization with overlap
     ethr =  5.43E-04,  avg # of iterations =  2.0

     negative rho (up, down):  5.289E-03 0.000E+00

     total cpu time spent up to now is      250.3 secs

     total energy              =    -583.76920822 Ry
     estimated scf accuracy    <       0.92141193 Ry

     iteration # 20     ecut=    60.00 Ry     beta= 0.30
     Davidson diagonalization with overlap
     ethr =  5.43E-04,  avg # of iterations =  1.0

     negative rho (up, down):  5.402E-03 0.000E+00

     total cpu time spent up to now is      260.6 secs

     total energy              =    -583.67717410 Ry
     estimated scf accuracy    <       1.03188141 Ry

     iteration # 21     ecut=    60.00 Ry     beta= 0.30
     Davidson diagonalization with overlap
     ethr =  5.43E-04,  avg # of iterations =  2.0

     negative rho (up, down):  5.388E-03 0.000E+00

     total cpu time spent up to now is      274.3 secs

     total energy              =    -583.14902092 Ry
     estimated scf accuracy    <       0.73863585 Ry

     iteration # 22     ecut=    60.00 Ry     beta= 0.30
     Davidson diagonalization with overlap
     ethr =  5.43E-04,  avg # of iterations =  7.0

     negative rho (up, down):  4.334E-03 0.000E+00

     total cpu time spent up to now is      286.7 secs

     total energy              =    -583.26483576 Ry
     estimated scf accuracy    <       2.70008773 Ry

     iteration # 23     ecut=    60.00 Ry     beta= 0.30
     Davidson diagonalization with overlap
     ethr =  5.43E-04,  avg # of iterations =  5.0

     negative rho (up, down):  4.479E-03 0.000E+00

     total cpu time spent up to now is      298.6 secs

     total energy              =    -583.54410115 Ry
     estimated scf accuracy    <       0.19332785 Ry

     iteration # 24     ecut=    60.00 Ry     beta= 0.30
     Davidson diagonalization with overlap
     ethr =  3.33E-04,  avg # of iterations =  2.0

     negative rho (up, down):  4.616E-03 0.000E+00

     total cpu time spent up to now is      312.1 secs

     total energy              =    -583.52485398 Ry
     estimated scf accuracy    <       0.12675291 Ry

     iteration # 25     ecut=    60.00 Ry     beta= 0.30
     Davidson diagonalization with overlap
     ethr =  2.19E-04,  avg # of iterations =  5.0

     negative rho (up, down):  4.482E-03 0.000E+00

     total cpu time spent up to now is      323.1 secs

     total energy              =    -583.54337805 Ry
     estimated scf accuracy    <       0.06351701 Ry

     iteration # 26     ecut=    60.00 Ry     beta= 0.30
     Davidson diagonalization with overlap
     ethr =  1.10E-04,  avg # of iterations =  2.0

     negative rho (up, down):  4.457E-03 0.000E+00

     total cpu time spent up to now is      333.7 secs

     total energy              =    -583.54834594 Ry
     estimated scf accuracy    <       0.05319556 Ry

     iteration # 27     ecut=    60.00 Ry     beta= 0.30
     Davidson diagonalization with overlap
     ethr =  9.17E-05,  avg # of iterations =  1.0

     negative rho (up, down):  4.424E-03 0.000E+00

     total cpu time spent up to now is      347.4 secs

     total energy              =    -583.54371897 Ry
     estimated scf accuracy    <       0.05254566 Ry

     iteration # 28     ecut=    60.00 Ry     beta= 0.30
     Davidson diagonalization with overlap
     ethr =  9.06E-05,  avg # of iterations =  2.0

     negative rho (up, down):  4.432E-03 0.000E+00

     total cpu time spent up to now is      357.9 secs

     total energy              =    -583.53987597 Ry
     estimated scf accuracy    <       0.02497906 Ry

     iteration # 29     ecut=    60.00 Ry     beta= 0.30
     Davidson diagonalization with overlap
     ethr =  4.31E-05,  avg # of iterations =  6.0

     negative rho (up, down):  4.475E-03 0.000E+00

     total cpu time spent up to now is      369.1 secs

     total energy              =    -583.54573693 Ry
     estimated scf accuracy    <       0.03606013 Ry

     iteration # 30     ecut=    60.00 Ry     beta= 0.30
     Davidson diagonalization with overlap
     ethr =  4.31E-05,  avg # of iterations =  1.0

     negative rho (up, down):  4.492E-03 0.000E+00

     total cpu time spent up to now is      382.7 secs

     total energy              =    -583.54584798 Ry
     estimated scf accuracy    <       0.02759124 Ry

     iteration # 31     ecut=    60.00 Ry     beta= 0.30
     Davidson diagonalization with overlap
     ethr =  4.31E-05,  avg # of iterations =  1.0

     negative rho (up, down):  4.532E-03 0.000E+00

     total cpu time spent up to now is      393.0 secs

     total energy              =    -583.54376377 Ry
     estimated scf accuracy    <       0.02614064 Ry

     iteration # 32     ecut=    60.00 Ry     beta= 0.30
     Davidson diagonalization with overlap
     ethr =  4.31E-05,  avg # of iterations =  1.0

     negative rho (up, down):  4.507E-03 0.000E+00

     total cpu time spent up to now is      403.4 secs

     total energy              =    -583.54349436 Ry
     estimated scf accuracy    <       0.01286581 Ry

     iteration # 33     ecut=    60.00 Ry     beta= 0.30
     Davidson diagonalization with overlap
     ethr =  2.22E-05,  avg # of iterations =  2.0

     negative rho (up, down):  4.485E-03 0.000E+00

     total cpu time spent up to now is      417.4 secs

     total energy              =    -583.54317972 Ry
     estimated scf accuracy    <       0.00766759 Ry

     iteration # 34     ecut=    60.00 Ry     beta= 0.30
     Davidson diagonalization with overlap
     ethr =  1.32E-05,  avg # of iterations =  6.0

     negative rho (up, down):  4.475E-03 0.000E+00

     total cpu time spent up to now is      428.6 secs

     total energy              =    -583.54534680 Ry
     estimated scf accuracy    <       0.00514937 Ry

     iteration # 35     ecut=    60.00 Ry     beta= 0.30
     Davidson diagonalization with overlap
     ethr =  8.88E-06,  avg # of iterations =  1.0

     negative rho (up, down):  4.468E-03 0.000E+00

     total cpu time spent up to now is      438.7 secs

     total energy              =    -583.54516963 Ry
     estimated scf accuracy    <       0.00524402 Ry

     iteration # 36     ecut=    60.00 Ry     beta= 0.30
     Davidson diagonalization with overlap
     ethr =  8.88E-06,  avg # of iterations =  1.0

     negative rho (up, down):  4.462E-03 0.000E+00

     total cpu time spent up to now is      452.4 secs

     total energy              =    -583.54489781 Ry
     estimated scf accuracy    <       0.00463109 Ry

     iteration # 37     ecut=    60.00 Ry     beta= 0.30
     Davidson diagonalization with overlap
     ethr =  7.98E-06,  avg # of iterations =  1.0

     negative rho (up, down):  4.460E-03 0.000E+00

     total cpu time spent up to now is      463.1 secs

     total energy              =    -583.54492308 Ry
     estimated scf accuracy    <       0.00294743 Ry

     iteration # 38     ecut=    60.00 Ry     beta= 0.30
     Davidson diagonalization with overlap
     ethr =  5.08E-06,  avg # of iterations =  1.0

     negative rho (up, down):  4.457E-03 0.000E+00

     total cpu time spent up to now is      473.3 secs

     total energy              =    -583.54492749 Ry
     estimated scf accuracy    <       0.00274235 Ry

     iteration # 39     ecut=    60.00 Ry     beta= 0.30
     Davidson diagonalization with overlap
     ethr =  4.73E-06,  avg # of iterations =  1.0

     negative rho (up, down):  4.451E-03 0.000E+00

     total cpu time spent up to now is      486.8 secs

     total energy              =    -583.54484032 Ry
     estimated scf accuracy    <       0.00224226 Ry

     iteration # 40     ecut=    60.00 Ry     beta= 0.30
     Davidson diagonalization with overlap
     ethr =  3.87E-06,  avg # of iterations =  1.0

     negative rho (up, down):  4.450E-03 0.000E+00

     total cpu time spent up to now is      497.4 secs

     total energy              =    -583.54478853 Ry
     estimated scf accuracy    <       0.00138991 Ry

     iteration # 41     ecut=    60.00 Ry     beta= 0.30
     Davidson diagonalization with overlap
     ethr =  2.40E-06,  avg # of iterations =  5.0

     negative rho (up, down):  4.451E-03 0.000E+00

     total cpu time spent up to now is      508.6 secs

     total energy              =    -583.54499492 Ry
     estimated scf accuracy    <       0.00010019 Ry

     iteration # 42     ecut=    60.00 Ry     beta= 0.30
     Davidson diagonalization with overlap
     ethr =  1.73E-07,  avg # of iterations =  4.0

     negative rho (up, down):  4.453E-03 0.000E+00

     total cpu time spent up to now is      523.1 secs

     total energy              =    -583.54499829 Ry
     estimated scf accuracy    <       0.00015513 Ry

     iteration # 43     ecut=    60.00 Ry     beta= 0.30
     Davidson diagonalization with overlap
     ethr =  1.73E-07,  avg # of iterations =  1.0

     negative rho (up, down):  4.455E-03 0.000E+00

     total cpu time spent up to now is      533.2 secs

     total energy              =    -583.54498692 Ry
     estimated scf accuracy    <       0.00015446 Ry

     iteration # 44     ecut=    60.00 Ry     beta= 0.30
     Davidson diagonalization with overlap
     ethr =  1.73E-07,  avg # of iterations =  1.0

     negative rho (up, down):  4.456E-03 0.000E+00

     total cpu time spent up to now is      544.0 secs

     total energy              =    -583.54498038 Ry
     estimated scf accuracy    <       0.00011096 Ry

     iteration # 45     ecut=    60.00 Ry     beta= 0.30
     Davidson diagonalization with overlap
     ethr =  1.73E-07,  avg # of iterations =  1.0

     negative rho (up, down):  4.456E-03 0.000E+00

     total cpu time spent up to now is      557.3 secs

     total energy              =    -583.54498259 Ry
     estimated scf accuracy    <       0.00006960 Ry

     iteration # 46     ecut=    60.00 Ry     beta= 0.30
     Davidson diagonalization with overlap
     ethr =  1.20E-07,  avg # of iterations =  1.0

     negative rho (up, down):  4.457E-03 0.000E+00

     total cpu time spent up to now is      567.4 secs

     total energy              =    -583.54498140 Ry
     estimated scf accuracy    <       0.00006448 Ry

     iteration # 47     ecut=    60.00 Ry     beta= 0.30
     Davidson diagonalization with overlap
     ethr =  1.11E-07,  avg # of iterations =  2.0

     negative rho (up, down):  4.456E-03 0.000E+00

     total cpu time spent up to now is      577.9 secs

     total energy              =    -583.54498440 Ry
     estimated scf accuracy    <       0.00003818 Ry

     iteration # 48     ecut=    60.00 Ry     beta= 0.30
     Davidson diagonalization with overlap
     ethr =  6.58E-08,  avg # of iterations =  2.0

     negative rho (up, down):  4.456E-03 0.000E+00

     total cpu time spent up to now is      591.8 secs

     total energy              =    -583.54498448 Ry
     estimated scf accuracy    <       0.00003268 Ry

     iteration # 49     ecut=    60.00 Ry     beta= 0.30
     Davidson diagonalization with overlap
     ethr =  5.63E-08,  avg # of iterations =  1.0

     negative rho (up, down):  4.457E-03 0.000E+00

     total cpu time spent up to now is      602.4 secs

     total energy              =    -583.54498097 Ry
     estimated scf accuracy    <       0.00002673 Ry

     iteration # 50     ecut=    60.00 Ry     beta= 0.30
     Davidson diagonalization with overlap
     ethr =  4.61E-08,  avg # of iterations =  5.0

     negative rho (up, down):  4.457E-03 0.000E+00

     total cpu time spent up to now is      613.5 secs

     total energy              =    -583.54498542 Ry
     estimated scf accuracy    <       0.00000608 Ry

     iteration # 51     ecut=    60.00 Ry     beta= 0.30
     Davidson diagonalization with overlap
     ethr =  1.05E-08,  avg # of iterations =  2.0

     negative rho (up, down):  4.456E-03 0.000E+00

     total cpu time spent up to now is      627.2 secs

     total energy              =    -583.54498517 Ry
     estimated scf accuracy    <       0.00000603 Ry

     iteration # 52     ecut=    60.00 Ry     beta= 0.30
     Davidson diagonalization with overlap
     ethr =  1.04E-08,  avg # of iterations =  1.0

     negative rho (up, down):  4.456E-03 0.000E+00

     total cpu time spent up to now is      637.9 secs

     total energy              =    -583.54498486 Ry
     estimated scf accuracy    <       0.00000475 Ry

     iteration # 53     ecut=    60.00 Ry     beta= 0.30
     Davidson diagonalization with overlap
     ethr =  8.20E-09,  avg # of iterations =  2.0

     negative rho (up, down):  4.456E-03 0.000E+00

     total cpu time spent up to now is      648.7 secs

     total energy              =    -583.54498499 Ry
     estimated scf accuracy    <       0.00000234 Ry

     iteration # 54     ecut=    60.00 Ry     beta= 0.30
     Davidson diagonalization with overlap
     ethr =  4.04E-09,  avg # of iterations =  2.0

     negative rho (up, down):  4.455E-03 0.000E+00

     total cpu time spent up to now is      662.8 secs

     total energy              =    -583.54498487 Ry
     estimated scf accuracy    <       0.00000172 Ry

     iteration # 55     ecut=    60.00 Ry     beta= 0.30
     Davidson diagonalization with overlap
     ethr =  2.97E-09,  avg # of iterations =  5.0

     negative rho (up, down):  4.456E-03 0.000E+00

     total cpu time spent up to now is      673.8 secs

     total energy              =    -583.54498520 Ry
     estimated scf accuracy    <       0.00000045 Ry

     iteration # 56     ecut=    60.00 Ry     beta= 0.30
     Davidson diagonalization with overlap
     ethr =  7.69E-10,  avg # of iterations =  1.0

     negative rho (up, down):  4.456E-03 0.000E+00

     total cpu time spent up to now is      684.5 secs

     total energy              =    -583.54498518 Ry
     estimated scf accuracy    <       0.00000047 Ry

     iteration # 57     ecut=    60.00 Ry     beta= 0.30
     Davidson diagonalization with overlap
     ethr =  7.69E-10,  avg # of iterations =  1.0

     negative rho (up, down):  4.456E-03 0.000E+00

     total cpu time spent up to now is      698.3 secs

     total energy              =    -583.54498516 Ry
     estimated scf accuracy    <       0.00000042 Ry

     iteration # 58     ecut=    60.00 Ry     beta= 0.30
     Davidson diagonalization with overlap
     ethr =  7.30E-10,  avg # of iterations =  1.0

     negative rho (up, down):  4.456E-03 0.000E+00

     total cpu time spent up to now is      709.1 secs

     total energy              =    -583.54498513 Ry
     estimated scf accuracy    <       0.00000030 Ry

     iteration # 59     ecut=    60.00 Ry     beta= 0.30
     Davidson diagonalization with overlap
     ethr =  5.22E-10,  avg # of iterations =  2.0

     negative rho (up, down):  4.456E-03 0.000E+00

     total cpu time spent up to now is      719.9 secs

     total energy              =    -583.54498514 Ry
     estimated scf accuracy    <       0.00000014 Ry

     iteration # 60     ecut=    60.00 Ry     beta= 0.30
     Davidson diagonalization with overlap
     ethr =  2.34E-10,  avg # of iterations =  2.0

     negative rho (up, down):  4.456E-03 0.000E+00

     total cpu time spent up to now is      733.4 secs

     total energy              =    -583.54498516 Ry
     estimated scf accuracy    <       0.00000010 Ry

     iteration # 61     ecut=    60.00 Ry     beta= 0.30
     Davidson diagonalization with overlap
     ethr =  1.73E-10,  avg # of iterations =  1.0

     negative rho (up, down):  4.456E-03 0.000E+00

     total cpu time spent up to now is      744.3 secs

     total energy              =    -583.54498515 Ry
     estimated scf accuracy    <       0.00000011 Ry

     iteration # 62     ecut=    60.00 Ry     beta= 0.30
     Davidson diagonalization with overlap
     ethr =  1.73E-10,  avg # of iterations =  5.0

     negative rho (up, down):  4.456E-03 0.000E+00

     total cpu time spent up to now is      755.3 secs

     total energy              =    -583.54498516 Ry
     estimated scf accuracy    <       0.00000001 Ry

     iteration # 63     ecut=    60.00 Ry     beta= 0.30
     Davidson diagonalization with overlap
     ethr =  1.87E-11,  avg # of iterations =  5.0

     negative rho (up, down):  4.456E-03 0.000E+00

     total cpu time spent up to now is      769.6 secs

     total energy              =    -583.54498516 Ry
     estimated scf accuracy    <       0.00000001 Ry

     iteration # 64     ecut=    60.00 Ry     beta= 0.30
     Davidson diagonalization with overlap
     ethr =  1.87E-11,  avg # of iterations =  6.0

     negative rho (up, down):  4.456E-03 0.000E+00

     total cpu time spent up to now is      781.2 secs

     total energy              =    -583.54498518 Ry
     estimated scf accuracy    <       0.00000008 Ry

     iteration # 65     ecut=    60.00 Ry     beta= 0.30
     Davidson diagonalization with overlap
     ethr =  1.87E-11,  avg # of iterations =  7.0

     negative rho (up, down):  4.456E-03 0.000E+00

     total cpu time spent up to now is      793.2 secs

     total energy              =    -583.54498516 Ry
     estimated scf accuracy    <       0.00000037 Ry

     iteration # 66     ecut=    60.00 Ry     beta= 0.30
     Davidson diagonalization with overlap
     ethr =  1.87E-11,  avg # of iterations =  6.0

     negative rho (up, down):  4.456E-03 0.000E+00

     total cpu time spent up to now is      807.8 secs

     total energy              =    -583.54498517 Ry
     estimated scf accuracy    <       0.00000014 Ry

     iteration # 67     ecut=    60.00 Ry     beta= 0.30
     Davidson diagonalization with overlap
     ethr =  1.87E-11,  avg # of iterations =  1.0

     negative rho (up, down):  4.456E-03 0.000E+00

     total cpu time spent up to now is      818.1 secs

     total energy              =    -583.54498517 Ry
     estimated scf accuracy    <       0.00000015 Ry

     iteration # 68     ecut=    60.00 Ry     beta= 0.30
     Davidson diagonalization with overlap
     ethr =  1.87E-11,  avg # of iterations =  1.0

     negative rho (up, down):  4.456E-03 0.000E+00

     total cpu time spent up to now is      828.3 secs

     total energy              =    -583.54498517 Ry
     estimated scf accuracy    <       0.00000016 Ry

     iteration # 69     ecut=    60.00 Ry     beta= 0.30
     Davidson diagonalization with overlap
     ethr =  1.87E-11,  avg # of iterations =  1.0

     negative rho (up, down):  4.456E-03 0.000E+00

     total cpu time spent up to now is      842.0 secs

     total energy              =    -583.54498517 Ry
     estimated scf accuracy    <       0.00000017 Ry

     iteration # 70     ecut=    60.00 Ry     beta= 0.30
     Davidson diagonalization with overlap
     ethr =  1.87E-11,  avg # of iterations =  1.0

     negative rho (up, down):  4.456E-03 0.000E+00

     total cpu time spent up to now is      852.5 secs

     total energy              =    -583.54498516 Ry
     estimated scf accuracy    <       0.00000015 Ry

     iteration # 71     ecut=    60.00 Ry     beta= 0.30
     Davidson diagonalization with overlap
     ethr =  1.87E-11,  avg # of iterations =  5.0

     negative rho (up, down):  4.456E-03 0.000E+00

     total cpu time spent up to now is      863.5 secs

     total energy              =    -583.54498516 Ry
     estimated scf accuracy    <       0.00000005 Ry

     iteration # 72     ecut=    60.00 Ry     beta= 0.30
     Davidson diagonalization with overlap
     ethr =  1.87E-11,  avg # of iterations =  1.0

     negative rho (up, down):  4.456E-03 0.000E+00

     total cpu time spent up to now is      877.1 secs

     total energy              =    -583.54498516 Ry
     estimated scf accuracy    <       0.00000005 Ry

     iteration # 73     ecut=    60.00 Ry     beta= 0.30
     Davidson diagonalization with overlap
     ethr =  1.87E-11,  avg # of iterations =  7.0

     negative rho (up, down):  4.456E-03 0.000E+00

     total cpu time spent up to now is      888.3 secs

     End of self-consistent calculation

          k = 0.0000 0.0000 0.0000 ( 98475 PWs)   bands (ev):

  -108.4086 -68.7973 -68.7973 -68.7973 -29.3098 -29.3044 -29.3044 -29.3044
   -14.5603 -14.0875 -14.0875 -14.0875 -12.1237 -11.9020 -11.9020 -11.8853
   -11.8853 -11.8853 -11.7306 -11.7306 -11.7306 -10.8978 -10.8978 -10.8978
    -7.0312  -7.0312  -6.1441  -6.1441  -6.1441

     highest occupied level (ev):    -6.1441

!    total energy              =    -583.54498515 Ry
     estimated scf accuracy    <          4.7E-09 Ry

     The total energy is the sum of the following terms:
     one-electron contribution =   -1990.46824270 Ry
     hartree contribution      =     996.58142077 Ry
     xc contribution           =     -82.61156983 Ry
     ewald contribution        =     555.80379040 Ry
     one-center paw contrib.   =     -62.85038379 Ry

     convergence has been achieved in  73 iterations

     negative rho (up, down):  4.456E-03 0.000E+00

     Forces acting on atoms (cartesian axes, Ry/au):

     atom    1 type  2   force =     0.00000000    0.00000000    0.00000000
     atom    2 type  1   force =    -0.08342563   -0.08342563   -0.08342563
     atom    3 type  3   force =     0.05811859    0.05811859    0.05811859
     atom    4 type  1   force =    -0.08342563    0.08342563    0.08342563
     atom    5 type  3   force =     0.05811859   -0.05811859   -0.05811859
     atom    6 type  1   force =     0.08342563   -0.08342563    0.08342563
     atom    7 type  3   force =    -0.05811859    0.05811859   -0.05811859
     atom    8 type  1   force =     0.08342563    0.08342563   -0.08342563
     atom    9 type  3   force =    -0.05811859   -0.05811859    0.05811859

     Total force =     0.352209     Total SCF correction =     0.000114

     BFGS Geometry Optimization
     Energy error            =      1.2E-01 Ry
     Gradient error          =      8.3E-02 Ry/Bohr

     number of scf cycles    =   1
     number of bfgs steps    =   0

     energy             new  =    -583.5449851542 Ry

     new trust radius        =       0.1444974273 bohr
     new conv_thr            =       0.0000000100 Ry


ATOMIC_POSITIONS (angstrom)
Ni               7.7464845600        7.7464845600        7.7464845600
C                8.7981484386        8.7981484386        8.7981484386
O                9.5237241621        9.5237241621        9.5237241621
C                8.7981484386        6.6948206914        6.6948206914
O                9.5237241621        5.9692449679        5.9692449679
C                6.6948206914        8.7981484386        6.6948206914
O                5.9692449679        9.5237241621        5.9692449679
C                6.6948206914        6.6948206914        8.7981484386
O                5.9692449679        5.9692449679        9.5237241621



     Writing config-only to output data dir /home/duets/qe_workdirs/ni_co4__mc_dist__+0.06/ni_co4__mc_dist__+0.06.save/ :
     XML data file
     NEW-OLD atomic charge density approx. for the potential

     negative rho (up, down):  4.109E-03 0.000E+00

     total cpu time spent up to now is      899.7 secs

     Self-consistent Calculation

     iteration #  1     ecut=    60.00 Ry     beta= 0.30
     Davidson diagonalization with overlap
     c_bands:  3 eigenvalues not converged
     ethr =  1.00E-06,  avg # of iterations = 20.0

     negative rho (up, down):  4.092E-03 0.000E+00

     total cpu time spent up to now is      924.2 secs

     total energy              =    -583.34930986 Ry
     estimated scf accuracy    <       0.26932985 Ry

     iteration #  2     ecut=    60.00 Ry     beta= 0.30
     Davidson diagonalization with overlap
     ethr =  4.64E-04,  avg # of iterations =  7.0

     negative rho (up, down):  4.269E-03 0.000E+00

     total cpu time spent up to now is      935.9 secs

     total energy              =    -583.35716527 Ry
     estimated scf accuracy    <       1.05382243 Ry

     iteration #  3     ecut=    60.00 Ry     beta= 0.30
     Davidson diagonalization with overlap
     ethr =  4.64E-04,  avg # of iterations =  6.0

     negative rho (up, down):  4.185E-03 0.000E+00

     total cpu time spent up to now is      950.4 secs

     total energy              =    -583.42204183 Ry
     estimated scf accuracy    <       0.02226617 Ry

     iteration #  4     ecut=    60.00 Ry     beta= 0.30
     Davidson diagonalization with overlap
     ethr =  3.84E-05,  avg # of iterations =  4.0

     negative rho (up, down):  4.215E-03 0.000E+00

     total cpu time spent up to now is      962.2 secs

     total energy              =    -583.42605553 Ry
     estimated scf accuracy    <       0.00262380 Ry

     iteration #  5     ecut=    60.00 Ry     beta= 0.30
     Davidson diagonalization with overlap
     ethr =  4.52E-06,  avg # of iterations =  7.0

     negative rho (up, down):  4.250E-03 0.000E+00

     total cpu time spent up to now is      974.9 secs

     total energy              =    -583.42584913 Ry
     estimated scf accuracy    <       0.00906019 Ry

     iteration #  6     ecut=    60.00 Ry     beta= 0.30
     Davidson diagonalization with overlap
     ethr =  4.52E-06,  avg # of iterations =  6.0

     negative rho (up, down):  4.357E-03 0.000E+00

     total cpu time spent up to now is      988.6 secs

     total energy              =    -583.42690288 Ry
     estimated scf accuracy    <       0.00043092 Ry

     iteration #  7     ecut=    60.00 Ry     beta= 0.30
     Davidson diagonalization with overlap
     ethr =  7.43E-07,  avg # of iterations =  6.0

     negative rho (up, down):  4.327E-03 0.000E+00

     total cpu time spent up to now is     1000.8 secs

     total energy              =    -583.42631109 Ry
     estimated scf accuracy    <       0.00802891 Ry

     iteration #  8     ecut=    60.00 Ry     beta= 0.30
     Davidson diagonalization with overlap
     ethr =  7.43E-07,  avg # of iterations =  6.0

     negative rho (up, down):  4.326E-03 0.000E+00

     total cpu time spent up to now is     1016.4 secs

     total energy              =    -583.42673956 Ry
     estimated scf accuracy    <       0.00049985 Ry

     iteration #  9     ecut=    60.00 Ry     beta= 0.30
     Davidson diagonalization with overlap
     ethr =  7.43E-07,  avg # of iterations =  6.0

     negative rho (up, down):  4.333E-03 0.000E+00

     total cpu time spent up to now is     1028.1 secs

     total energy              =    -583.42677989 Ry
     estimated scf accuracy    <       0.00026521 Ry

     iteration # 10     ecut=    60.00 Ry     beta= 0.30
     Davidson diagonalization with overlap
     ethr =  4.57E-07,  avg # of iterations =  6.0

     negative rho (up, down):  4.338E-03 0.000E+00

     total cpu time spent up to now is     1039.5 secs

     total energy              =    -583.42685743 Ry
     estimated scf accuracy    <       0.00026833 Ry

     iteration # 11     ecut=    60.00 Ry     beta= 0.30
     Davidson diagonalization with overlap
     ethr =  4.57E-07,  avg # of iterations =  1.0

     negative rho (up, down):  4.341E-03 0.000E+00

     total cpu time spent up to now is     1052.6 secs

     total energy              =    -583.42682169 Ry
     estimated scf accuracy    <       0.00025161 Ry

     iteration # 12     ecut=    60.00 Ry     beta= 0.30
     Davidson diagonalization with overlap
     ethr =  4.34E-07,  avg # of iterations =  2.0

     negative rho (up, down):  4.342E-03 0.000E+00

     total cpu time spent up to now is     1063.1 secs

     total energy              =    -583.42683449 Ry
     estimated scf accuracy    <       0.00005321 Ry

     iteration # 13     ecut=    60.00 Ry     beta= 0.30
     Davidson diagonalization with overlap
     ethr =  9.17E-08,  avg # of iterations =  4.0

     negative rho (up, down):  4.344E-03 0.000E+00

     total cpu time spent up to now is     1074.2 secs

     total energy              =    -583.42684271 Ry
     estimated scf accuracy    <       0.00000240 Ry

     iteration # 14     ecut=    60.00 Ry     beta= 0.30
     Davidson diagonalization with overlap
     ethr =  4.13E-09,  avg # of iterations =  5.0

     negative rho (up, down):  4.345E-03 0.000E+00

     total cpu time spent up to now is     1088.9 secs

     total energy              =    -583.42684442 Ry
     estimated scf accuracy    <       0.00000256 Ry

     iteration # 15     ecut=    60.00 Ry     beta= 0.30
     Davidson diagonalization with overlap
     ethr =  4.13E-09,  avg # of iterations =  4.0

     negative rho (up, down):  4.346E-03 0.000E+00

     total cpu time spent up to now is     1100.0 secs

     total energy              =    -583.42684397 Ry
     estimated scf accuracy    <       0.00000355 Ry

     iteration # 16     ecut=    60.00 Ry     beta= 0.30
     Davidson diagonalization with overlap
     ethr =  4.13E-09,  avg # of iterations =  6.0

     negative rho (up, down):  4.347E-03 0.000E+00

     total cpu time spent up to now is     1111.7 secs

     total energy              =    -583.42684491 Ry
     estimated scf accuracy    <       0.00000067 Ry

     iteration # 17     ecut=    60.00 Ry     beta= 0.30
     Davidson diagonalization with overlap
     ethr =  1.15E-09,  avg # of iterations =  7.0

     negative rho (up, down):  4.347E-03 0.000E+00

     total cpu time spent up to now is     1127.1 secs

     total energy              =    -583.42684455 Ry
     estimated scf accuracy    <       0.00001197 Ry

     iteration # 18     ecut=    60.00 Ry     beta= 0.30
     Davidson diagonalization with overlap
     ethr =  1.15E-09,  avg # of iterations =  3.0

     negative rho (up, down):  4.348E-03 0.000E+00

     total cpu time spent up to now is     1137.9 secs

     total energy              =    -583.42684394 Ry
     estimated scf accuracy    <       0.00000706 Ry

     iteration # 19     ecut=    60.00 Ry     beta= 0.30
     Davidson diagonalization with overlap
     ethr =  1.15E-09,  avg # of iterations =  6.0

     negative rho (up, down):  4.348E-03 0.000E+00

     total cpu time spent up to now is     1149.7 secs

     total energy              =    -583.42684445 Ry
     estimated scf accuracy    <       0.00000054 Ry

     iteration # 20     ecut=    60.00 Ry     beta= 0.30
     Davidson diagonalization with overlap
     ethr =  9.29E-10,  avg # of iterations =  1.0

     negative rho (up, down):  4.348E-03 0.000E+00

     total cpu time spent up to now is     1163.3 secs

     total energy              =    -583.42684447 Ry
     estimated scf accuracy    <       0.00000055 Ry

     iteration # 21     ecut=    60.00 Ry     beta= 0.30
     Davidson diagonalization with overlap
     ethr =  9.29E-10,  avg # of iterations =  1.0

     negative rho (up, down):  4.348E-03 0.000E+00

     total cpu time spent up to now is     1174.0 secs

     total energy              =    -583.42684433 Ry
     estimated scf accuracy    <       0.00000066 Ry

     iteration # 22     ecut=    60.00 Ry     beta= 0.30
     Davidson diagonalization with overlap
     ethr =  9.29E-10,  avg # of iterations =  8.0

     negative rho (up, down):  4.349E-03 0.000E+00

     total cpu time spent up to now is     1186.1 secs

     total energy              =    -583.42684503 Ry
     estimated scf accuracy    <       0.00000241 Ry

     iteration # 23     ecut=    60.00 Ry     beta= 0.30
     Davidson diagonalization with overlap
     ethr =  9.29E-10,  avg # of iterations =  5.0

     negative rho (up, down):  4.349E-03 0.000E+00

     total cpu time spent up to now is     1200.1 secs

     total energy              =    -583.42684447 Ry
     estimated scf accuracy    <       0.00000442 Ry

     iteration # 24     ecut=    60.00 Ry     beta= 0.30
     Davidson diagonalization with overlap
     ethr =  9.29E-10,  avg # of iterations =  3.0

     negative rho (up, down):  4.349E-03 0.000E+00

     total cpu time spent up to now is     1210.7 secs

     total energy              =    -583.42684356 Ry
     estimated scf accuracy    <       0.00000242 Ry

     iteration # 25     ecut=    60.00 Ry     beta= 0.30
     Davidson diagonalization with overlap
     ethr =  9.29E-10,  avg # of iterations =  7.0

     negative rho (up, down):  4.349E-03 0.000E+00

     total cpu time spent up to now is     1226.7 secs

     total energy              =    -583.42684399 Ry
     estimated scf accuracy    <       0.00000389 Ry

     iteration # 26     ecut=    60.00 Ry     beta= 0.30
     Davidson diagonalization with overlap
     ethr =  9.29E-10,  avg # of iterations =  6.0

     negative rho (up, down):  4.349E-03 0.000E+00

     total cpu time spent up to now is     1239.2 secs

     total energy              =    -583.42684446 Ry
     estimated scf accuracy    <       0.00000004 Ry

     iteration # 27     ecut=    60.00 Ry     beta= 0.30
     Davidson diagonalization with overlap
     ethr =  6.83E-11,  avg # of iterations =  7.0

     negative rho (up, down):  4.349E-03 0.000E+00

     total cpu time spent up to now is     1252.6 secs

     total energy              =    -583.42684442 Ry
     estimated scf accuracy    <       0.00000142 Ry

     iteration # 28     ecut=    60.00 Ry     beta= 0.30
     Davidson diagonalization with overlap
     ethr =  6.83E-11,  avg # of iterations =  5.0

     negative rho (up, down):  4.349E-03 0.000E+00

     total cpu time spent up to now is     1267.1 secs

     total energy              =    -583.42684436 Ry
     estimated scf accuracy    <       0.00000063 Ry

     iteration # 29     ecut=    60.00 Ry     beta= 0.30
     Davidson diagonalization with overlap
     ethr =  6.83E-11,  avg # of iterations =  9.0

     negative rho (up, down):  4.349E-03 0.000E+00

     total cpu time spent up to now is     1279.6 secs

     total energy              =    -583.42684440 Ry
     estimated scf accuracy    <       0.00000002 Ry

     iteration # 30     ecut=    60.00 Ry     beta= 0.30
     Davidson diagonalization with overlap
     ethr =  2.65E-11,  avg # of iterations =  2.0

     negative rho (up, down):  4.349E-03 0.000E+00

     total cpu time spent up to now is     1289.6 secs

     End of self-consistent calculation

          k = 0.0000 0.0000 0.0000 ( 98475 PWs)   bands (ev):

  -110.0218 -70.4023 -70.4023 -70.4023 -27.6467 -27.6367 -27.6367 -27.6367
   -15.5552 -14.6371 -14.6371 -14.6371 -12.3060 -11.5705 -11.5705 -11.5705
   -11.1874 -11.1874 -11.0914 -11.0914 -11.0914 -10.8182 -10.8182 -10.8182
    -8.4698  -8.4698  -7.3417  -7.3417  -7.3417

     highest occupied level (ev):    -7.3417

!    total energy              =    -583.42684439 Ry
     estimated scf accuracy    <          8.0E-09 Ry

     The total energy is the sum of the following terms:
     one-electron contribution =   -1981.20439992 Ry
     hartree contribution      =     991.14045508 Ry
     xc contribution           =     -81.80095525 Ry
     ewald contribution        =     551.30879544 Ry
     one-center paw contrib.   =     -62.87073975 Ry

     convergence has been achieved in  30 iterations

     negative rho (up, down):  4.349E-03 0.000E+00

     Forces acting on atoms (cartesian axes, Ry/au):

     atom    1 type  2   force =     0.00000000    0.00000000    0.00000000
     atom    2 type  1   force =     0.17229695    0.17229695    0.17229695
     atom    3 type  3   force =    -0.17978833   -0.17978833   -0.17978833
     atom    4 type  1   force =     0.17229695   -0.17229695   -0.17229695
     atom    5 type  3   force =    -0.17978833    0.17978833    0.17978833
     atom    6 type  1   force =    -0.17229695    0.17229695   -0.17229695
     atom    7 type  3   force =     0.17978833   -0.17978833    0.17978833
     atom    8 type  1   force =    -0.17229695   -0.17229695    0.17229695
     atom    9 type  3   force =     0.17978833    0.17978833   -0.17978833

     Total force =     0.862624     Total SCF correction =     0.000207
     Energy error            =      1.2E-01 Ry
     Gradient error          =      1.8E-01 Ry/Bohr

     number of scf cycles    =   2
     number of bfgs steps    =   1

     energy             old  =    -583.5449851542 Ry
     energy             new  =    -583.4268443920 Ry

     CASE: energy            _new > energy            _old

     new trust radius        =       0.0370059434 bohr
     new conv_thr            =       0.0000000100 Ry


ATOMIC_POSITIONS (angstrom)
Ni               7.7464845600        7.7464845600        7.7464845600
C                8.8309893018        8.8309893018        8.8309893018
O                9.5008455261        9.5008455261        9.5008455261
C                8.8309893018        6.6619798282        6.6619798282
O                9.5008455261        5.9921236039        5.9921236039
C                6.6619798282        8.8309893018        6.6619798282
O                5.9921236039        9.5008455261        5.9921236039
C                6.6619798282        6.6619798282        8.8309893018
O                5.9921236039        5.9921236039        9.5008455261



     Writing config-only to output data dir /home/duets/qe_workdirs/ni_co4__mc_dist__+0.06/ni_co4__mc_dist__+0.06.save/ :
     XML data file
     NEW-OLD atomic charge density approx. for the potential

     negative rho (up, down):  4.065E-03 0.000E+00

     total cpu time spent up to now is     1304.7 secs

     Self-consistent Calculation

     iteration #  1     ecut=    60.00 Ry     beta= 0.30
     Davidson diagonalization with overlap
     ethr =  1.00E-06,  avg # of iterations = 19.0

     negative rho (up, down):  4.182E-03 0.000E+00

     total cpu time spent up to now is     1325.2 secs

     total energy              =    -583.53068613 Ry
     estimated scf accuracy    <       0.11030631 Ry

     iteration #  2     ecut=    60.00 Ry     beta= 0.30
     Davidson diagonalization with overlap
     ethr =  1.90E-04,  avg # of iterations =  7.0

     negative rho (up, down):  4.294E-03 0.000E+00

     total cpu time spent up to now is     1340.0 secs

     total energy              =    -583.50064790 Ry
     estimated scf accuracy    <       0.80748580 Ry

     iteration #  3     ecut=    60.00 Ry     beta= 0.30
     Davidson diagonalization with overlap
     ethr =  1.90E-04,  avg # of iterations =  6.0

     negative rho (up, down):  4.305E-03 0.000E+00

     total cpu time spent up to now is     1351.2 secs

     total energy              =    -583.55427930 Ry
     estimated scf accuracy    <       0.01472904 Ry

     iteration #  4     ecut=    60.00 Ry     beta= 0.30
     Davidson diagonalization with overlap
     ethr =  2.54E-05,  avg # of iterations =  2.0

     negative rho (up, down):  4.364E-03 0.000E+00

     total cpu time spent up to now is     1362.0 secs

     total energy              =    -583.55621168 Ry
     estimated scf accuracy    <       0.00358974 Ry

     iteration #  5     ecut=    60.00 Ry     beta= 0.30
     Davidson diagonalization with overlap
     ethr =  6.19E-06,  avg # of iterations =  4.0

     negative rho (up, down):  4.388E-03 0.000E+00

     total cpu time spent up to now is     1376.3 secs

     total energy              =    -583.55709401 Ry
     estimated scf accuracy    <       0.00080169 Ry

     iteration #  6     ecut=    60.00 Ry     beta= 0.30
     Davidson diagonalization with overlap
     ethr =  1.38E-06,  avg # of iterations =  4.0

     negative rho (up, down):  4.415E-03 0.000E+00

     total cpu time spent up to now is     1387.2 secs

     total energy              =    -583.55728677 Ry
     estimated scf accuracy    <       0.00016140 Ry

     iteration #  7     ecut=    60.00 Ry     beta= 0.30
     Davidson diagonalization with overlap
     ethr =  2.78E-07,  avg # of iterations =  4.0

     negative rho (up, down):  4.423E-03 0.000E+00

     total cpu time spent up to now is     1398.3 secs

     total energy              =    -583.55731754 Ry
     estimated scf accuracy    <       0.00003619 Ry

     iteration #  8     ecut=    60.00 Ry     beta= 0.30
     Davidson diagonalization with overlap
     ethr =  6.24E-08,  avg # of iterations =  5.0

     negative rho (up, down):  4.421E-03 0.000E+00

     total cpu time spent up to now is     1413.5 secs

     total energy              =    -583.55731716 Ry
     estimated scf accuracy    <       0.00003151 Ry

     iteration #  9     ecut=    60.00 Ry     beta= 0.30
     Davidson diagonalization with overlap
     ethr =  5.43E-08,  avg # of iterations =  8.0

     negative rho (up, down):  4.424E-03 0.000E+00

     total cpu time spent up to now is     1425.8 secs

     total energy              =    -583.55732748 Ry
     estimated scf accuracy    <       0.00009311 Ry

     iteration # 10     ecut=    60.00 Ry     beta= 0.30
     Davidson diagonalization with overlap
     ethr =  5.43E-08,  avg # of iterations =  2.0

     negative rho (up, down):  4.428E-03 0.000E+00

     total cpu time spent up to now is     1439.7 secs

     total energy              =    -583.55732549 Ry
     estimated scf accuracy    <       0.00005213 Ry

     iteration # 11     ecut=    60.00 Ry     beta= 0.30
     Davidson diagonalization with overlap
     ethr =  5.43E-08,  avg # of iterations =  5.0

     negative rho (up, down):  4.430E-03 0.000E+00

     total cpu time spent up to now is     1450.6 secs

     total energy              =    -583.55732855 Ry
     estimated scf accuracy    <       0.00000238 Ry

     iteration # 12     ecut=    60.00 Ry     beta= 0.30
     Davidson diagonalization with overlap
     ethr =  4.11E-09,  avg # of iterations =  4.0

     negative rho (up, down):  4.431E-03 0.000E+00

     total cpu time spent up to now is     1461.4 secs

     total energy              =    -583.55732874 Ry
     estimated scf accuracy    <       0.00000285 Ry

     iteration # 13     ecut=    60.00 Ry     beta= 0.30
     Davidson diagonalization with overlap
     ethr =  4.11E-09,  avg # of iterations =  5.0

     negative rho (up, down):  4.432E-03 0.000E+00

     total cpu time spent up to now is     1476.0 secs

     total energy              =    -583.55732880 Ry
     estimated scf accuracy    <       0.00001127 Ry

     iteration # 14     ecut=    60.00 Ry     beta= 0.30
     Davidson diagonalization with overlap
     ethr =  4.11E-09,  avg # of iterations =  2.0

     negative rho (up, down):  4.433E-03 0.000E+00

     total cpu time spent up to now is     1487.0 secs

     total energy              =    -583.55732841 Ry
     estimated scf accuracy    <       0.00000801 Ry

     iteration # 15     ecut=    60.00 Ry     beta= 0.30
     Davidson diagonalization with overlap
     ethr =  4.11E-09,  avg # of iterations =  2.0

     negative rho (up, down):  4.434E-03 0.000E+00

     total cpu time spent up to now is     1497.3 secs

     total energy              =    -583.55732820 Ry
     estimated scf accuracy    <       0.00000456 Ry

     iteration # 16     ecut=    60.00 Ry     beta= 0.30
     Davidson diagonalization with overlap
     ethr =  4.11E-09,  avg # of iterations =  5.0

     negative rho (up, down):  4.434E-03 0.000E+00

     total cpu time spent up to now is     1511.7 secs

     total energy              =    -583.55732854 Ry
     estimated scf accuracy    <       0.00000006 Ry

     iteration # 17     ecut=    60.00 Ry     beta= 0.30
     Davidson diagonalization with overlap
     ethr =  9.59E-11,  avg # of iterations =  5.0

     negative rho (up, down):  4.435E-03 0.000E+00

     total cpu time spent up to now is     1524.0 secs

     total energy              =    -583.55732859 Ry
     estimated scf accuracy    <       0.00000005 Ry

     iteration # 18     ecut=    60.00 Ry     beta= 0.30
     Davidson diagonalization with overlap
     ethr =  9.03E-11,  avg # of iterations =  1.0

     negative rho (up, down):  4.435E-03 0.000E+00

     total cpu time spent up to now is     1534.3 secs

     total energy              =    -583.55732859 Ry
     estimated scf accuracy    <       0.00000007 Ry

     iteration # 19     ecut=    60.00 Ry     beta= 0.30
     Davidson diagonalization with overlap
     ethr =  9.03E-11,  avg # of iterations =  2.0

     negative rho (up, down):  4.435E-03 0.000E+00

     total cpu time spent up to now is     1548.2 secs

     total energy              =    -583.55732859 Ry
     estimated scf accuracy    <       0.00000004 Ry

     iteration # 20     ecut=    60.00 Ry     beta= 0.30
     Davidson diagonalization with overlap
     ethr =  6.10E-11,  avg # of iterations =  1.0

     negative rho (up, down):  4.435E-03 0.000E+00

     total cpu time spent up to now is     1558.7 secs

     total energy              =    -583.55732858 Ry
     estimated scf accuracy    <       0.00000002 Ry

     iteration # 21     ecut=    60.00 Ry     beta= 0.30
     Davidson diagonalization with overlap
     ethr =  3.56E-11,  avg # of iterations =  5.0

     negative rho (up, down):  4.436E-03 0.000E+00

     total cpu time spent up to now is     1569.6 secs

     End of self-consistent calculation

          k = 0.0000 0.0000 0.0000 ( 98475 PWs)   bands (ev):

  -108.8278 -69.2138 -69.2138 -69.2138 -28.8605 -28.8541 -28.8541 -28.8541
   -14.7903 -14.2034 -14.2034 -14.2034 -12.1955 -11.6768 -11.6768 -11.6543
   -11.6543 -11.6543 -11.4726 -11.4726 -11.4726 -11.0807 -11.0807 -11.0807
    -7.4198  -7.4198  -6.4703  -6.4703  -6.4703

     highest occupied level (ev):    -6.4703

!    total energy              =    -583.55732859 Ry
     estimated scf accuracy    <          6.6E-09 Ry

     The total energy is the sum of the following terms:
     one-electron contribution =   -1987.70305854 Ry
     hartree contribution      =     994.99318733 Ry
     xc contribution           =     -82.37654315 Ry
     ewald contribution        =     554.38252203 Ry
     one-center paw contrib.   =     -62.85343626 Ry

     convergence has been achieved in  21 iterations

     negative rho (up, down):  4.436E-03 0.000E+00

     Forces acting on atoms (cartesian axes, Ry/au):

     atom    1 type  2   force =     0.00000000    0.00000000    0.00000000
     atom    2 type  1   force =     0.00411058    0.00411058    0.00411058
     atom    3 type  3   force =    -0.02585736   -0.02585736   -0.02585736
     atom    4 type  1   force =     0.00411058   -0.00411058   -0.00411058
     atom    5 type  3   force =    -0.02585736    0.02585736    0.02585736
     atom    6 type  1   force =    -0.00411058    0.00411058   -0.00411058
     atom    7 type  3   force =     0.02585736   -0.02585736    0.02585736
     atom    8 type  1   force =    -0.00411058   -0.00411058    0.00411058
     atom    9 type  3   force =     0.02585736    0.02585736   -0.02585736

     Total force =     0.090697     Total SCF correction =     0.000203
     Energy error            =      1.2E-02 Ry
     Gradient error          =      2.6E-02 Ry/Bohr

     number of scf cycles    =   3
     number of bfgs steps    =   1

     energy             old  =    -583.5449851542 Ry
     energy             new  =    -583.5573285874 Ry

     CASE: energy            _new < energy            _old

     new trust radius        =       0.0241612000 bohr
     new conv_thr            =       0.0000000100 Ry


ATOMIC_POSITIONS (angstrom)
Ni               7.7464845600        7.7464845600        7.7464845600
C                8.8267653164        8.8267653164        8.8267653164
O                9.4934637817        9.4934637817        9.4934637817
C                8.8267653164        6.6662038136        6.6662038136
O                9.4934637817        5.9995053483        5.9995053483
C                6.6662038136        8.8267653164        6.6662038136
O                5.9995053483        9.4934637817        5.9995053483
C                6.6662038136        6.6662038136        8.8267653164
O                5.9995053483        5.9995053483        9.4934637817



     Writing config-only to output data dir /home/duets/qe_workdirs/ni_co4__mc_dist__+0.06/ni_co4__mc_dist__+0.06.save/ :
     XML data file
     NEW-OLD atomic charge density approx. for the potential

     negative rho (up, down):  4.412E-03 0.000E+00

     total cpu time spent up to now is     1584.5 secs

     Self-consistent Calculation

     iteration #  1     ecut=    60.00 Ry     beta= 0.30
     Davidson diagonalization with overlap
     ethr =  1.00E-06,  avg # of iterations = 12.0

     negative rho (up, down):  4.418E-03 0.000E+00

     total cpu time spent up to now is     1600.8 secs

     total energy              =    -583.56070903 Ry
     estimated scf accuracy    <       0.00046824 Ry

     iteration #  2     ecut=    60.00 Ry     beta= 0.30
     Davidson diagonalization with overlap
     ethr =  8.07E-07,  avg # of iterations =  2.0

     negative rho (up, down):  4.424E-03 0.000E+00

     total cpu time spent up to now is     1611.8 secs

     total energy              =    -583.56067684 Ry
     estimated scf accuracy    <       0.00019225 Ry

     iteration #  3     ecut=    60.00 Ry     beta= 0.30
     Davidson diagonalization with overlap
     ethr =  3.31E-07,  avg # of iterations =  4.0

     negative rho (up, down):  4.430E-03 0.000E+00

     total cpu time spent up to now is     1626.1 secs

     total energy              =    -583.56069887 Ry
     estimated scf accuracy    <       0.00005539 Ry

     iteration #  4     ecut=    60.00 Ry     beta= 0.30
     Davidson diagonalization with overlap
     ethr =  9.55E-08,  avg # of iterations =  4.0

     negative rho (up, down):  4.434E-03 0.000E+00

     total cpu time spent up to now is     1637.0 secs

     total energy              =    -583.56068595 Ry
     estimated scf accuracy    <       0.00004911 Ry

     iteration #  5     ecut=    60.00 Ry     beta= 0.30
     Davidson diagonalization with overlap
     ethr =  8.47E-08,  avg # of iterations =  6.0

     negative rho (up, down):  4.438E-03 0.000E+00

     total cpu time spent up to now is     1651.9 secs

     total energy              =    -583.56067856 Ry
     estimated scf accuracy    <       0.00030837 Ry

     iteration #  6     ecut=    60.00 Ry     beta= 0.30
     Davidson diagonalization with overlap
     ethr =  8.47E-08,  avg # of iterations =  7.0

     negative rho (up, down):  4.439E-03 0.000E+00

     total cpu time spent up to now is     1663.5 secs

     total energy              =    -583.56069039 Ry
     estimated scf accuracy    <       0.00002843 Ry

     iteration #  7     ecut=    60.00 Ry     beta= 0.30
     Davidson diagonalization with overlap
     ethr =  4.90E-08,  avg # of iterations =  6.0

     negative rho (up, down):  4.441E-03 0.000E+00

     total cpu time spent up to now is     1675.0 secs

     total energy              =    -583.56070304 Ry
     estimated scf accuracy    <       0.00004803 Ry

     iteration #  8     ecut=    60.00 Ry     beta= 0.30
     Davidson diagonalization with overlap
     ethr =  4.90E-08,  avg # of iterations =  1.0

     negative rho (up, down):  4.442E-03 0.000E+00

     total cpu time spent up to now is     1688.6 secs

     total energy              =    -583.56069634 Ry
     estimated scf accuracy    <       0.00003878 Ry

     iteration #  9     ecut=    60.00 Ry     beta= 0.30
     Davidson diagonalization with overlap
     ethr =  4.90E-08,  avg # of iterations =  5.0

     negative rho (up, down):  4.442E-03 0.000E+00

     total cpu time spent up to now is     1699.9 secs

     total energy              =    -583.56070165 Ry
     estimated scf accuracy    <       0.00000079 Ry

     iteration # 10     ecut=    60.00 Ry     beta= 0.30
     Davidson diagonalization with overlap
     ethr =  1.36E-09,  avg # of iterations =  5.0

     negative rho (up, down):  4.443E-03 0.000E+00

     total cpu time spent up to now is     1711.7 secs

     total energy              =    -583.56070174 Ry
     estimated scf accuracy    <       0.00000431 Ry

     iteration # 11     ecut=    60.00 Ry     beta= 0.30
     Davidson diagonalization with overlap
     ethr =  1.36E-09,  avg # of iterations =  2.0

     negative rho (up, down):  4.443E-03 0.000E+00

     total cpu time spent up to now is     1725.5 secs

     total energy              =    -583.56070162 Ry
     estimated scf accuracy    <       0.00000254 Ry

     iteration # 12     ecut=    60.00 Ry     beta= 0.30
     Davidson diagonalization with overlap
     ethr =  1.36E-09,  avg # of iterations =  4.0

     negative rho (up, down):  4.444E-03 0.000E+00

     total cpu time spent up to now is     1736.4 secs

     total energy              =    -583.56070182 Ry
     estimated scf accuracy    <       0.00000116 Ry

     iteration # 13     ecut=    60.00 Ry     beta= 0.30
     Davidson diagonalization with overlap
     ethr =  1.36E-09,  avg # of iterations =  1.0

     negative rho (up, down):  4.444E-03 0.000E+00

     total cpu time spent up to now is     1746.9 secs

     total energy              =    -583.56070169 Ry
     estimated scf accuracy    <       0.00000117 Ry

     iteration # 14     ecut=    60.00 Ry     beta= 0.30
     Davidson diagonalization with overlap
     ethr =  1.36E-09,  avg # of iterations =  3.0

     negative rho (up, down):  4.444E-03 0.000E+00

     total cpu time spent up to now is     1760.9 secs

     total energy              =    -583.56070170 Ry
     estimated scf accuracy    <       0.00000021 Ry

     iteration # 15     ecut=    60.00 Ry     beta= 0.30
     Davidson diagonalization with overlap
     ethr =  3.56E-10,  avg # of iterations =  7.0

     negative rho (up, down):  4.444E-03 0.000E+00

     total cpu time spent up to now is     1773.0 secs

     total energy              =    -583.56070191 Ry
     estimated scf accuracy    <       0.00000337 Ry

     iteration # 16     ecut=    60.00 Ry     beta= 0.30
     Davidson diagonalization with overlap
     ethr =  3.56E-10,  avg # of iterations =  3.0

     negative rho (up, down):  4.444E-03 0.000E+00

     total cpu time spent up to now is     1783.9 secs

     total energy              =    -583.56070174 Ry
     estimated scf accuracy    <       0.00000227 Ry

     iteration # 17     ecut=    60.00 Ry     beta= 0.30
     Davidson diagonalization with overlap
     ethr =  3.56E-10,  avg # of iterations =  6.0

     negative rho (up, down):  4.445E-03 0.000E+00

     total cpu time spent up to now is     1798.0 secs

     total energy              =    -583.56070176 Ry
     estimated scf accuracy    <       0.00000030 Ry

     iteration # 18     ecut=    60.00 Ry     beta= 0.30
     Davidson diagonalization with overlap
     ethr =  3.56E-10,  avg # of iterations =  2.0

     negative rho (up, down):  4.445E-03 0.000E+00

     total cpu time spent up to now is     1808.8 secs

     total energy              =    -583.56070176 Ry
     estimated scf accuracy    <       0.00000007 Ry

     iteration # 19     ecut=    60.00 Ry     beta= 0.30
     Davidson diagonalization with overlap
     ethr =  1.26E-10,  avg # of iterations =  8.0

     negative rho (up, down):  4.445E-03 0.000E+00

     total cpu time spent up to now is     1820.9 secs

     total energy              =    -583.56070173 Ry
     estimated scf accuracy    <       0.00000068 Ry

     iteration # 20     ecut=    60.00 Ry     beta= 0.30
     Davidson diagonalization with overlap
     ethr =  1.26E-10,  avg # of iterations =  6.0

     negative rho (up, down):  4.445E-03 0.000E+00

     total cpu time spent up to now is     1835.4 secs

     total energy              =    -583.56070179 Ry
     estimated scf accuracy    <       0.00000001 Ry

     iteration # 21     ecut=    60.00 Ry     beta= 0.30
     Davidson diagonalization with overlap
     ethr =  2.24E-11,  avg # of iterations =  2.0

     negative rho (up, down):  4.445E-03 0.000E+00

     total cpu time spent up to now is     1845.8 secs

     total energy              =    -583.56070178 Ry
     estimated scf accuracy    <       0.00000001 Ry

     iteration # 22     ecut=    60.00 Ry     beta= 0.30
     Davidson diagonalization with overlap
     ethr =  2.14E-11,  avg # of iterations =  6.0

     negative rho (up, down):  4.445E-03 0.000E+00

     total cpu time spent up to now is     1857.6 secs

     total energy              =    -583.56070179 Ry
     estimated scf accuracy    <       0.00000006 Ry

     iteration # 23     ecut=    60.00 Ry     beta= 0.30
     Davidson diagonalization with overlap
     ethr =  2.14E-11,  avg # of iterations =  1.0

     negative rho (up, down):  4.445E-03 0.000E+00

     total cpu time spent up to now is     1870.9 secs

     total energy              =    -583.56070178 Ry
     estimated scf accuracy    <       0.00000006 Ry

     iteration # 24     ecut=    60.00 Ry     beta= 0.30
     Davidson diagonalization with overlap
     ethr =  2.14E-11,  avg # of iterations =  2.0

     negative rho (up, down):  4.445E-03 0.000E+00

     total cpu time spent up to now is     1881.7 secs

     total energy              =    -583.56070179 Ry
     estimated scf accuracy    <       0.00000003 Ry

     iteration # 25     ecut=    60.00 Ry     beta= 0.30
     Davidson diagonalization with overlap
     ethr =  2.14E-11,  avg # of iterations =  1.0

     negative rho (up, down):  4.445E-03 0.000E+00

     total cpu time spent up to now is     1892.0 secs

     total energy              =    -583.56070179 Ry
     estimated scf accuracy    <       0.00000003 Ry

     iteration # 26     ecut=    60.00 Ry     beta= 0.30
     Davidson diagonalization with overlap
     ethr =  2.14E-11,  avg # of iterations =  1.0

     negative rho (up, down):  4.445E-03 0.000E+00

     total cpu time spent up to now is     1905.3 secs

     total energy              =    -583.56070179 Ry
     estimated scf accuracy    <       0.00000003 Ry

     iteration # 27     ecut=    60.00 Ry     beta= 0.30
     Davidson diagonalization with overlap
     ethr =  2.14E-11,  avg # of iterations =  5.0

     negative rho (up, down):  4.445E-03 0.000E+00

     total cpu time spent up to now is     1916.3 secs

     End of self-consistent calculation

          k = 0.0000 0.0000 0.0000 ( 98475 PWs)   bands (ev):

  -108.8346 -69.2206 -69.2206 -69.2206 -28.9300 -28.9235 -28.9235 -28.9235
   -14.7826 -14.1877 -14.1877 -14.1877 -12.2144 -11.7182 -11.7182 -11.6942
   -11.6942 -11.6942 -11.5100 -11.5100 -11.5100 -11.0952 -11.0952 -11.0952
    -7.4291  -7.4291  -6.4621  -6.4621  -6.4621

     highest occupied level (ev):    -6.4621

!    total energy              =    -583.56070179 Ry
     estimated scf accuracy    <          1.7E-10 Ry

     The total energy is the sum of the following terms:
     one-electron contribution =   -1992.21501357 Ry
     hartree contribution      =     997.23594910 Ry
     xc contribution           =     -82.42943245 Ry
     ewald contribution        =     556.70041492 Ry
     one-center paw contrib.   =     -62.85261979 Ry

     convergence has been achieved in  27 iterations

     negative rho (up, down):  4.445E-03 0.000E+00

     Forces acting on atoms (cartesian axes, Ry/au):

     atom    1 type  2   force =     0.00000000    0.00000000    0.00000000
     atom    2 type  1   force =    -0.00661554   -0.00661554   -0.00661554
     atom    3 type  3   force =    -0.01297124   -0.01297124   -0.01297124
     atom    4 type  1   force =    -0.00661554    0.00661554    0.00661554
     atom    5 type  3   force =    -0.01297124    0.01297124    0.01297124
     atom    6 type  1   force =     0.00661554   -0.00661554    0.00661554
     atom    7 type  3   force =     0.01297124   -0.01297124    0.01297124
     atom    8 type  1   force =     0.00661554    0.00661554   -0.00661554
     atom    9 type  3   force =     0.01297124    0.01297124   -0.01297124

     Total force =     0.050440     Total SCF correction =     0.000018
     Energy error            =      3.4E-03 Ry
     Gradient error          =      1.3E-02 Ry/Bohr

     number of scf cycles    =   4
     number of bfgs steps    =   2

     energy             old  =    -583.5573285874 Ry
     energy             new  =    -583.5607017893 Ry

     CASE: energy            _new < energy            _old

     new trust radius        =       0.0265773200 bohr
     new conv_thr            =       0.0000000100 Ry


ATOMIC_POSITIONS (angstrom)
Ni               7.7464845600        7.7464845600        7.7464845600
C                8.8202878552        8.8202878552        8.8202878552
O                9.4853438628        9.4853438628        9.4853438628
C                8.8202878552        6.6726812748        6.6726812748
O                9.4853438628        6.0076252672        6.0076252672
C                6.6726812748        8.8202878552        6.6726812748
O                6.0076252672        9.4853438628        6.0076252672
C                6.6726812748        6.6726812748        8.8202878552
O                6.0076252672        6.0076252672        9.4853438628



     Writing config-only to output data dir /home/duets/qe_workdirs/ni_co4__mc_dist__+0.06/ni_co4__mc_dist__+0.06.save/ :
     XML data file
     NEW-OLD atomic charge density approx. for the potential

     negative rho (up, down):  4.424E-03 0.000E+00

     total cpu time spent up to now is     1927.7 secs

     Self-consistent Calculation

     iteration #  1     ecut=    60.00 Ry     beta= 0.30
     Davidson diagonalization with overlap
     ethr =  1.00E-06,  avg # of iterations = 12.0

     negative rho (up, down):  4.428E-03 0.000E+00

     total cpu time spent up to now is     1947.4 secs

     total energy              =    -583.56365127 Ry
     estimated scf accuracy    <       0.00070477 Ry

     iteration #  2     ecut=    60.00 Ry     beta= 0.30
     Davidson diagonalization with overlap
     ethr =  1.22E-06,  avg # of iterations =  5.0

     negative rho (up, down):  4.439E-03 0.000E+00

     total cpu time spent up to now is     1958.5 secs

     total energy              =    -583.56364974 Ry
     estimated scf accuracy    <       0.00057305 Ry

     iteration #  3     ecut=    60.00 Ry     beta= 0.30
     Davidson diagonalization with overlap
     ethr =  9.88E-07,  avg # of iterations =  5.0

     negative rho (up, down):  4.442E-03 0.000E+00

     total cpu time spent up to now is     1973.1 secs

     total energy              =    -583.56367581 Ry
     estimated scf accuracy    <       0.00014335 Ry

     iteration #  4     ecut=    60.00 Ry     beta= 0.30
     Davidson diagonalization with overlap
     ethr =  2.47E-07,  avg # of iterations =  5.0

     negative rho (up, down):  4.447E-03 0.000E+00

     total cpu time spent up to now is     1984.7 secs

     total energy              =    -583.56364461 Ry
     estimated scf accuracy    <       0.00028422 Ry

     iteration #  5     ecut=    60.00 Ry     beta= 0.30
     Davidson diagonalization with overlap
     ethr =  2.47E-07,  avg # of iterations =  6.0

     negative rho (up, down):  4.453E-03 0.000E+00

     total cpu time spent up to now is     1996.1 secs

     total energy              =    -583.56367985 Ry
     estimated scf accuracy    <       0.00015441 Ry

     iteration #  6     ecut=    60.00 Ry     beta= 0.30
     Davidson diagonalization with overlap
     ethr =  2.47E-07,  avg # of iterations =  2.0

     negative rho (up, down):  4.455E-03 0.000E+00

     total cpu time spent up to now is     2010.3 secs

     total energy              =    -583.56365837 Ry
     estimated scf accuracy    <       0.00007319 Ry

     iteration #  7     ecut=    60.00 Ry     beta= 0.30
     Davidson diagonalization with overlap
     ethr =  1.26E-07,  avg # of iterations =  6.0

     negative rho (up, down):  4.457E-03 0.000E+00

     total cpu time spent up to now is     2022.6 secs

     total energy              =    -583.56368786 Ry
     estimated scf accuracy    <       0.00030048 Ry

     iteration #  8     ecut=    60.00 Ry     beta= 0.30
     Davidson diagonalization with overlap
     ethr =  1.26E-07,  avg # of iterations =  2.0

     negative rho (up, down):  4.458E-03 0.000E+00

     total cpu time spent up to now is     2033.2 secs

     total energy              =    -583.56367560 Ry
     estimated scf accuracy    <       0.00020332 Ry

     iteration #  9     ecut=    60.00 Ry     beta= 0.30
     Davidson diagonalization with overlap
     ethr =  1.26E-07,  avg # of iterations =  4.0

     negative rho (up, down):  4.459E-03 0.000E+00

     total cpu time spent up to now is     2047.8 secs

     total energy              =    -583.56368596 Ry
     estimated scf accuracy    <       0.00001657 Ry

     iteration # 10     ecut=    60.00 Ry     beta= 0.30
     Davidson diagonalization with overlap
     ethr =  2.86E-08,  avg # of iterations =  2.0

     negative rho (up, down):  4.459E-03 0.000E+00

     total cpu time spent up to now is     2058.3 secs

     total energy              =    -583.56368635 Ry
     estimated scf accuracy    <       0.00000851 Ry

     iteration # 11     ecut=    60.00 Ry     beta= 0.30
     Davidson diagonalization with overlap
     ethr =  1.47E-08,  avg # of iterations =  5.0

     negative rho (up, down):  4.460E-03 0.000E+00

     total cpu time spent up to now is     2069.7 secs

     total energy              =    -583.56368789 Ry
     estimated scf accuracy    <       0.00000301 Ry

     iteration # 12     ecut=    60.00 Ry     beta= 0.30
     Davidson diagonalization with overlap
     ethr =  5.19E-09,  avg # of iterations =  5.0

     negative rho (up, down):  4.460E-03 0.000E+00

     total cpu time spent up to now is     2084.2 secs

     total energy              =    -583.56368880 Ry
     estimated scf accuracy    <       0.00000206 Ry

     iteration # 13     ecut=    60.00 Ry     beta= 0.30
     Davidson diagonalization with overlap
     ethr =  3.56E-09,  avg # of iterations =  3.0

     negative rho (up, down):  4.460E-03 0.000E+00

     total cpu time spent up to now is     2094.8 secs

     total energy              =    -583.56368833 Ry
     estimated scf accuracy    <       0.00000261 Ry

     iteration # 14     ecut=    60.00 Ry     beta= 0.30
     Davidson diagonalization with overlap
     ethr =  3.56E-09,  avg # of iterations =  2.0

     negative rho (up, down):  4.460E-03 0.000E+00

     total cpu time spent up to now is     2105.3 secs

     total energy              =    -583.56368853 Ry
     estimated scf accuracy    <       0.00000086 Ry

     iteration # 15     ecut=    60.00 Ry     beta= 0.30
     Davidson diagonalization with overlap
     ethr =  1.48E-09,  avg # of iterations =  2.0

     negative rho (up, down):  4.461E-03 0.000E+00

     total cpu time spent up to now is     2119.1 secs

     total energy              =    -583.56368848 Ry
     estimated scf accuracy    <       0.00000060 Ry

     iteration # 16     ecut=    60.00 Ry     beta= 0.30
     Davidson diagonalization with overlap
     ethr =  1.03E-09,  avg # of iterations =  4.0

     negative rho (up, down):  4.461E-03 0.000E+00

     total cpu time spent up to now is     2130.2 secs

     total energy              =    -583.56368864 Ry
     estimated scf accuracy    <       0.00000047 Ry

     iteration # 17     ecut=    60.00 Ry     beta= 0.30
     Davidson diagonalization with overlap
     ethr =  8.19E-10,  avg # of iterations =  1.0

     negative rho (up, down):  4.461E-03 0.000E+00

     total cpu time spent up to now is     2140.4 secs

     total energy              =    -583.56368865 Ry
     estimated scf accuracy    <       0.00000027 Ry

     iteration # 18     ecut=    60.00 Ry     beta= 0.30
     Davidson diagonalization with overlap
     ethr =  4.67E-10,  avg # of iterations =  1.0

     negative rho (up, down):  4.461E-03 0.000E+00

     total cpu time spent up to now is     2153.9 secs

     total energy              =    -583.56368865 Ry
     estimated scf accuracy    <       0.00000023 Ry

     iteration # 19     ecut=    60.00 Ry     beta= 0.30
     Davidson diagonalization with overlap
     ethr =  3.95E-10,  avg # of iterations =  2.0

     negative rho (up, down):  4.461E-03 0.000E+00

     total cpu time spent up to now is     2164.4 secs

     total energy              =    -583.56368870 Ry
     estimated scf accuracy    <       0.00000012 Ry

     iteration # 20     ecut=    60.00 Ry     beta= 0.30
     Davidson diagonalization with overlap
     ethr =  2.13E-10,  avg # of iterations =  1.0

     negative rho (up, down):  4.461E-03 0.000E+00

     total cpu time spent up to now is     2174.8 secs

     total energy              =    -583.56368868 Ry
     estimated scf accuracy    <       0.00000019 Ry

     iteration # 21     ecut=    60.00 Ry     beta= 0.30
     Davidson diagonalization with overlap
     ethr =  2.13E-10,  avg # of iterations =  1.0

     negative rho (up, down):  4.461E-03 0.000E+00

     total cpu time spent up to now is     2188.1 secs

     total energy              =    -583.56368867 Ry
     estimated scf accuracy    <       0.00000017 Ry

     iteration # 22     ecut=    60.00 Ry     beta= 0.30
     Davidson diagonalization with overlap
     ethr =  2.13E-10,  avg # of iterations =  2.0

     negative rho (up, down):  4.461E-03 0.000E+00

     total cpu time spent up to now is     2198.9 secs

     total energy              =    -583.56368868 Ry
     estimated scf accuracy    <       0.00000011 Ry

     iteration # 23     ecut=    60.00 Ry     beta= 0.30
     Davidson diagonalization with overlap
     ethr =  1.95E-10,  avg # of iterations =  1.0

     negative rho (up, down):  4.461E-03 0.000E+00

     total cpu time spent up to now is     2209.2 secs

     total energy              =    -583.56368868 Ry
     estimated scf accuracy    <       0.00000012 Ry

     iteration # 24     ecut=    60.00 Ry     beta= 0.30
     Davidson diagonalization with overlap
     ethr =  1.95E-10,  avg # of iterations =  1.0

     negative rho (up, down):  4.461E-03 0.000E+00

     total cpu time spent up to now is     2222.9 secs

     total energy              =    -583.56368866 Ry
     estimated scf accuracy    <       0.00000011 Ry

     iteration # 25     ecut=    60.00 Ry     beta= 0.30
     Davidson diagonalization with overlap
     ethr =  1.86E-10,  avg # of iterations =  2.0

     negative rho (up, down):  4.461E-03 0.000E+00

     total cpu time spent up to now is     2233.4 secs

     total energy              =    -583.56368866 Ry
     estimated scf accuracy    <       0.00000003 Ry

     iteration # 26     ecut=    60.00 Ry     beta= 0.30
     Davidson diagonalization with overlap
     ethr =  4.40E-11,  avg # of iterations =  7.0

     negative rho (up, down):  4.461E-03 0.000E+00

     total cpu time spent up to now is     2245.6 secs

     total energy              =    -583.56368866 Ry
     estimated scf accuracy    <       0.00000010 Ry

     iteration # 27     ecut=    60.00 Ry     beta= 0.30
     Davidson diagonalization with overlap
     ethr =  4.40E-11,  avg # of iterations =  5.0

     negative rho (up, down):  4.461E-03 0.000E+00

     total cpu time spent up to now is     2259.6 secs

     End of self-consistent calculation

          k = 0.0000 0.0000 0.0000 ( 98475 PWs)   bands (ev):

  -108.8926 -69.2786 -69.2786 -69.2786 -28.9636 -28.9568 -28.9568 -28.9568
   -14.8019 -14.1829 -14.1829 -14.1829 -12.2445 -11.7444 -11.7444 -11.7177
   -11.7177 -11.7177 -11.5266 -11.5266 -11.5266 -11.1349 -11.1349 -11.1349
    -7.4864  -7.4864  -6.4896  -6.4896  -6.4896

     highest occupied level (ev):    -6.4896

!    total energy              =    -583.56368867 Ry
     estimated scf accuracy    <          2.7E-09 Ry

     The total energy is the sum of the following terms:
     one-electron contribution =   -1997.47440771 Ry
     hartree contribution      =     999.82400275 Ry
     xc contribution           =     -82.46848124 Ry
     ewald contribution        =     559.40729403 Ry
     one-center paw contrib.   =     -62.85209650 Ry

     convergence has been achieved in  27 iterations

     negative rho (up, down):  4.461E-03 0.000E+00

     Forces acting on atoms (cartesian axes, Ry/au):

     atom    1 type  2   force =     0.00000000    0.00000000    0.00000000
     atom    2 type  1   force =    -0.01051051   -0.01051051   -0.01051051
     atom    3 type  3   force =    -0.00576906   -0.00576906   -0.00576906
     atom    4 type  1   force =    -0.01051051    0.01051051    0.01051051
     atom    5 type  3   force =    -0.00576906    0.00576906    0.00576906
     atom    6 type  1   force =     0.01051051   -0.01051051    0.01051051
     atom    7 type  3   force =     0.00576906   -0.00576906    0.00576906
     atom    8 type  1   force =     0.01051051    0.01051051   -0.01051051
     atom    9 type  3   force =     0.00576906    0.00576906   -0.00576906

     Total force =     0.041534     Total SCF correction =     0.000085
     Energy error            =      3.0E-03 Ry
     Gradient error          =      1.1E-02 Ry/Bohr

     number of scf cycles    =   5
     number of bfgs steps    =   3

     energy             old  =    -583.5607017893 Ry
     energy             new  =    -583.5636886678 Ry

     CASE: energy            _new < energy            _old

     new trust radius        =       0.0398659800 bohr
     new conv_thr            =       0.0000000100 Ry


ATOMIC_POSITIONS (angstrom)
Ni               7.7464845600        7.7464845600        7.7464845600
C                8.8093027238        8.8093027238        8.8093027238
O                9.4731639845        9.4731639845        9.4731639845
C                8.8093027238        6.6836664062        6.6836664062
O                9.4731639845        6.0198051455        6.0198051455
C                6.6836664062        8.8093027238        6.6836664062
O                6.0198051455        9.4731639845        6.0198051455
C                6.6836664062        6.6836664062        8.8093027238
O                6.0198051455        6.0198051455        9.4731639845



     Writing config-only to output data dir /home/duets/qe_workdirs/ni_co4__mc_dist__+0.06/ni_co4__mc_dist__+0.06.save/ :
     XML data file
     NEW-OLD atomic charge density approx. for the potential

     negative rho (up, down):  4.411E-03 0.000E+00

     total cpu time spent up to now is     2271.4 secs

     Self-consistent Calculation

     iteration #  1     ecut=    60.00 Ry     beta= 0.30
     Davidson diagonalization with overlap
     ethr =  1.00E-06,  avg # of iterations = 14.0

     negative rho (up, down):  4.418E-03 0.000E+00

     total cpu time spent up to now is     2292.4 secs

     total energy              =    -583.56689587 Ry
     estimated scf accuracy    <       0.00195617 Ry

     iteration #  2     ecut=    60.00 Ry     beta= 0.30
     Davidson diagonalization with overlap
     ethr =  3.37E-06,  avg # of iterations =  5.0

     negative rho (up, down):  4.444E-03 0.000E+00

     total cpu time spent up to now is     2303.5 secs

     total energy              =    -583.56679077 Ry
     estimated scf accuracy    <       0.00369226 Ry

     iteration #  3     ecut=    60.00 Ry     beta= 0.30
     Davidson diagonalization with overlap
     ethr =  3.37E-06,  avg # of iterations =  5.0

     negative rho (up, down):  4.445E-03 0.000E+00

     total cpu time spent up to now is     2314.6 secs

     total energy              =    -583.56705866 Ry
     estimated scf accuracy    <       0.00065697 Ry

     iteration #  4     ecut=    60.00 Ry     beta= 0.30
     Davidson diagonalization with overlap
     ethr =  1.13E-06,  avg # of iterations =  2.0

     negative rho (up, down):  4.471E-03 0.000E+00

     total cpu time spent up to now is     2328.5 secs

     total energy              =    -583.56702892 Ry
     estimated scf accuracy    <       0.00019031 Ry

     iteration #  5     ecut=    60.00 Ry     beta= 0.30
     Davidson diagonalization with overlap
     ethr =  3.28E-07,  avg # of iterations =  6.0

     negative rho (up, down):  4.470E-03 0.000E+00

     total cpu time spent up to now is     2340.5 secs

     total energy              =    -583.56706422 Ry
     estimated scf accuracy    <       0.00069964 Ry

     iteration #  6     ecut=    60.00 Ry     beta= 0.30
     Davidson diagonalization with overlap
     ethr =  3.28E-07,  avg # of iterations =  5.0

     negative rho (up, down):  4.471E-03 0.000E+00

     total cpu time spent up to now is     2351.6 secs

     total energy              =    -583.56709087 Ry
     estimated scf accuracy    <       0.00007327 Ry

     iteration #  7     ecut=    60.00 Ry     beta= 0.30
     Davidson diagonalization with overlap
     ethr =  1.26E-07,  avg # of iterations =  1.0

     negative rho (up, down):  4.474E-03 0.000E+00

     total cpu time spent up to now is     2364.3 secs

     total energy              =    -583.56707937 Ry
     estimated scf accuracy    <       0.00007099 Ry

     iteration #  8     ecut=    60.00 Ry     beta= 0.30
     Davidson diagonalization with overlap
     ethr =  1.22E-07,  avg # of iterations =  5.0

     negative rho (up, down):  4.475E-03 0.000E+00

     total cpu time spent up to now is     2375.8 secs

     total energy              =    -583.56709160 Ry
     estimated scf accuracy    <       0.00001360 Ry

     iteration #  9     ecut=    60.00 Ry     beta= 0.30
     Davidson diagonalization with overlap
     ethr =  2.35E-08,  avg # of iterations =  2.0

     negative rho (up, down):  4.476E-03 0.000E+00

     total cpu time spent up to now is     2386.2 secs

     total energy              =    -583.56709236 Ry
     estimated scf accuracy    <       0.00001475 Ry

     iteration # 10     ecut=    60.00 Ry     beta= 0.30
     Davidson diagonalization with overlap
     ethr =  2.35E-08,  avg # of iterations =  1.0

     negative rho (up, down):  4.477E-03 0.000E+00

     total cpu time spent up to now is     2399.8 secs

     total energy              =    -583.56709199 Ry
     estimated scf accuracy    <       0.00001572 Ry

     iteration # 11     ecut=    60.00 Ry     beta= 0.30
     Davidson diagonalization with overlap
     ethr =  2.35E-08,  avg # of iterations =  1.0

     negative rho (up, down):  4.477E-03 0.000E+00

     total cpu time spent up to now is     2410.2 secs

     total energy              =    -583.56708965 Ry
     estimated scf accuracy    <       0.00001535 Ry

     iteration # 12     ecut=    60.00 Ry     beta= 0.30
     Davidson diagonalization with overlap
     ethr =  2.35E-08,  avg # of iterations =  3.0

     negative rho (up, down):  4.478E-03 0.000E+00

     total cpu time spent up to now is     2421.9 secs

     total energy              =    -583.56709091 Ry
     estimated scf accuracy    <       0.00000155 Ry

     iteration # 13     ecut=    60.00 Ry     beta= 0.30
     Davidson diagonalization with overlap
     ethr =  2.67E-09,  avg # of iterations =  5.0

     negative rho (up, down):  4.479E-03 0.000E+00

     total cpu time spent up to now is     2435.7 secs

     total energy              =    -583.56709126 Ry
     estimated scf accuracy    <       0.00000196 Ry

     iteration # 14     ecut=    60.00 Ry     beta= 0.30
     Davidson diagonalization with overlap
     ethr =  2.67E-09,  avg # of iterations =  1.0

     negative rho (up, down):  4.479E-03 0.000E+00

     total cpu time spent up to now is     2445.9 secs

     total energy              =    -583.56709114 Ry
     estimated scf accuracy    <       0.00000133 Ry

     iteration # 15     ecut=    60.00 Ry     beta= 0.30
     Davidson diagonalization with overlap
     ethr =  2.30E-09,  avg # of iterations =  1.0

     negative rho (up, down):  4.479E-03 0.000E+00

     total cpu time spent up to now is     2456.6 secs

     total energy              =    -583.56709118 Ry
     estimated scf accuracy    <       0.00000073 Ry

     iteration # 16     ecut=    60.00 Ry     beta= 0.30
     Davidson diagonalization with overlap
     ethr =  1.26E-09,  avg # of iterations =  2.0

     negative rho (up, down):  4.480E-03 0.000E+00

     total cpu time spent up to now is     2470.4 secs

     total energy              =    -583.56709116 Ry
     estimated scf accuracy    <       0.00000050 Ry

     iteration # 17     ecut=    60.00 Ry     beta= 0.30
     Davidson diagonalization with overlap
     ethr =  8.61E-10,  avg # of iterations =  5.0

     negative rho (up, down):  4.480E-03 0.000E+00

     total cpu time spent up to now is     2482.0 secs

     total energy              =    -583.56709118 Ry
     estimated scf accuracy    <       0.00000094 Ry

     iteration # 18     ecut=    60.00 Ry     beta= 0.30
     Davidson diagonalization with overlap
     ethr =  8.61E-10,  avg # of iterations =  3.0

     negative rho (up, down):  4.479E-03 0.000E+00

     total cpu time spent up to now is     2492.8 secs

     total energy              =    -583.56709109 Ry
     estimated scf accuracy    <       0.00000020 Ry

     iteration # 19     ecut=    60.00 Ry     beta= 0.30
     Davidson diagonalization with overlap
     ethr =  3.48E-10,  avg # of iterations =  9.0

     negative rho (up, down):  4.479E-03 0.000E+00

     total cpu time spent up to now is     2508.2 secs

     total energy              =    -583.56709139 Ry
     estimated scf accuracy    <       0.00000744 Ry

     iteration # 20     ecut=    60.00 Ry     beta= 0.30
     Davidson diagonalization with overlap
     ethr =  3.48E-10,  avg # of iterations =  6.0

     negative rho (up, down):  4.479E-03 0.000E+00

     total cpu time spent up to now is     2519.7 secs

     total energy              =    -583.56709126 Ry
     estimated scf accuracy    <       0.00000266 Ry

     iteration # 21     ecut=    60.00 Ry     beta= 0.30
     Davidson diagonalization with overlap
     ethr =  3.48E-10,  avg # of iterations =  5.0

     negative rho (up, down):  4.479E-03 0.000E+00

     total cpu time spent up to now is     2531.0 secs

     total energy              =    -583.56709142 Ry
     estimated scf accuracy    <       0.00000083 Ry

     iteration # 22     ecut=    60.00 Ry     beta= 0.30
     Davidson diagonalization with overlap
     ethr =  3.48E-10,  avg # of iterations =  5.0

     negative rho (up, down):  4.479E-03 0.000E+00

     total cpu time spent up to now is     2545.4 secs

     total energy              =    -583.56709141 Ry
     estimated scf accuracy    <       0.00000270 Ry

     iteration # 23     ecut=    60.00 Ry     beta= 0.30
     Davidson diagonalization with overlap
     ethr =  3.48E-10,  avg # of iterations =  1.0

     negative rho (up, down):  4.480E-03 0.000E+00

     total cpu time spent up to now is     2556.0 secs

     total energy              =    -583.56709136 Ry
     estimated scf accuracy    <       0.00000250 Ry

     iteration # 24     ecut=    60.00 Ry     beta= 0.30
     Davidson diagonalization with overlap
     ethr =  3.48E-10,  avg # of iterations =  1.0

     negative rho (up, down):  4.480E-03 0.000E+00

     total cpu time spent up to now is     2566.1 secs

     total energy              =    -583.56709130 Ry
     estimated scf accuracy    <       0.00000217 Ry

     iteration # 25     ecut=    60.00 Ry     beta= 0.30
     Davidson diagonalization with overlap
     ethr =  3.48E-10,  avg # of iterations =  5.0

     negative rho (up, down):  4.480E-03 0.000E+00

     total cpu time spent up to now is     2580.3 secs

     total energy              =    -583.56709132 Ry
     estimated scf accuracy    <       0.00000087 Ry

     iteration # 26     ecut=    60.00 Ry     beta= 0.30
     Davidson diagonalization with overlap
     ethr =  3.48E-10,  avg # of iterations =  1.0

     negative rho (up, down):  4.480E-03 0.000E+00

     total cpu time spent up to now is     2590.6 secs

     total energy              =    -583.56709123 Ry
     estimated scf accuracy    <       0.00000086 Ry

     iteration # 27     ecut=    60.00 Ry     beta= 0.30
     Davidson diagonalization with overlap
     ethr =  3.48E-10,  avg # of iterations =  3.0

     negative rho (up, down):  4.480E-03 0.000E+00

     total cpu time spent up to now is     2601.6 secs

     total energy              =    -583.56709124 Ry
     estimated scf accuracy    <       0.00000034 Ry

     iteration # 28     ecut=    60.00 Ry     beta= 0.30
     Davidson diagonalization with overlap
     ethr =  3.48E-10,  avg # of iterations =  1.0

     negative rho (up, down):  4.480E-03 0.000E+00

     total cpu time spent up to now is     2615.2 secs

     total energy              =    -583.56709124 Ry
     estimated scf accuracy    <       0.00000025 Ry

     iteration # 29     ecut=    60.00 Ry     beta= 0.30
     Davidson diagonalization with overlap
     ethr =  3.48E-10,  avg # of iterations =  1.0

     negative rho (up, down):  4.480E-03 0.000E+00

     total cpu time spent up to now is     2625.6 secs

     total energy              =    -583.56709124 Ry
     estimated scf accuracy    <       0.00000019 Ry

     iteration # 30     ecut=    60.00 Ry     beta= 0.30
     Davidson diagonalization with overlap
     ethr =  3.23E-10,  avg # of iterations =  1.0

     negative rho (up, down):  4.480E-03 0.000E+00

     total cpu time spent up to now is     2635.9 secs

     total energy              =    -583.56709124 Ry
     estimated scf accuracy    <       0.00000015 Ry

     iteration # 31     ecut=    60.00 Ry     beta= 0.30
     Davidson diagonalization with overlap
     ethr =  2.65E-10,  avg # of iterations =  1.0

     negative rho (up, down):  4.480E-03 0.000E+00

     total cpu time spent up to now is     2648.9 secs

     total energy              =    -583.56709125 Ry
     estimated scf accuracy    <       0.00000012 Ry

     iteration # 32     ecut=    60.00 Ry     beta= 0.30
     Davidson diagonalization with overlap
     ethr =  2.10E-10,  avg # of iterations =  1.0

     negative rho (up, down):  4.480E-03 0.000E+00

     total cpu time spent up to now is     2659.6 secs

     total energy              =    -583.56709124 Ry
     estimated scf accuracy    <       0.00000010 Ry

     iteration # 33     ecut=    60.00 Ry     beta= 0.30
     Davidson diagonalization with overlap
     ethr =  1.72E-10,  avg # of iterations =  6.0

     negative rho (up, down):  4.480E-03 0.000E+00

     total cpu time spent up to now is     2670.9 secs

     total energy              =    -583.56709124 Ry
     estimated scf accuracy    <       0.00000007 Ry

     iteration # 34     ecut=    60.00 Ry     beta= 0.30
     Davidson diagonalization with overlap
     ethr =  1.16E-10,  avg # of iterations =  5.0

     negative rho (up, down):  4.480E-03 0.000E+00

     total cpu time spent up to now is     2686.1 secs

     total energy              =    -583.56709126 Ry
     estimated scf accuracy    <       0.00000007 Ry

     iteration # 35     ecut=    60.00 Ry     beta= 0.30
     Davidson diagonalization with overlap
     ethr =  1.16E-10,  avg # of iterations =  1.0

     negative rho (up, down):  4.480E-03 0.000E+00

     total cpu time spent up to now is     2696.3 secs

     total energy              =    -583.56709127 Ry
     estimated scf accuracy    <       0.00000009 Ry

     iteration # 36     ecut=    60.00 Ry     beta= 0.30
     Davidson diagonalization with overlap
     ethr =  1.16E-10,  avg # of iterations =  1.0

     negative rho (up, down):  4.480E-03 0.000E+00

     total cpu time spent up to now is     2706.6 secs

     total energy              =    -583.56709126 Ry
     estimated scf accuracy    <       0.00000010 Ry

     iteration # 37     ecut=    60.00 Ry     beta= 0.30
     Davidson diagonalization with overlap
     ethr =  1.16E-10,  avg # of iterations =  2.0

     negative rho (up, down):  4.480E-03 0.000E+00

     total cpu time spent up to now is     2720.3 secs

     total energy              =    -583.56709125 Ry
     estimated scf accuracy    <       0.00000009 Ry

     iteration # 38     ecut=    60.00 Ry     beta= 0.30
     Davidson diagonalization with overlap
     ethr =  1.16E-10,  avg # of iterations =  2.0

     negative rho (up, down):  4.480E-03 0.000E+00

     total cpu time spent up to now is     2730.8 secs

     total energy              =    -583.56709125 Ry
     estimated scf accuracy    <       0.00000002 Ry

     iteration # 39     ecut=    60.00 Ry     beta= 0.30
     Davidson diagonalization with overlap
     ethr =  2.85E-11,  avg # of iterations =  5.0

     negative rho (up, down):  4.480E-03 0.000E+00

     total cpu time spent up to now is     2741.7 secs

     End of self-consistent calculation

          k = 0.0000 0.0000 0.0000 ( 98475 PWs)   bands (ev):

  -109.0178 -69.4037 -69.4037 -69.4037 -28.9841 -28.9766 -28.9766 -28.9766
   -14.8533 -14.1852 -14.1852 -14.1852 -12.2945 -11.7716 -11.7716 -11.7392
   -11.7392 -11.7392 -11.5344 -11.5344 -11.5344 -11.2133 -11.2133 -11.2133
    -7.6073  -7.6073  -6.5567  -6.5567  -6.5567

     highest occupied level (ev):    -6.5567

!    total energy              =    -583.56709125 Ry
     estimated scf accuracy    <          1.0E-09 Ry

     The total energy is the sum of the following terms:
     one-electron contribution =   -2005.65200440 Ry
     hartree contribution      =    1003.83309538 Ry
     xc contribution           =     -82.51512850 Ry
     ewald contribution        =     563.61853203 Ry
     one-center paw contrib.   =     -62.85158577 Ry

     convergence has been achieved in  39 iterations

     negative rho (up, down):  4.480E-03 0.000E+00

     Forces acting on atoms (cartesian axes, Ry/au):

     atom    1 type  2   force =     0.00000000    0.00000000    0.00000000
     atom    2 type  1   force =    -0.01029681   -0.01029681   -0.01029681
     atom    3 type  3   force =    -0.00000478   -0.00000478   -0.00000478
     atom    4 type  1   force =    -0.01029681    0.01029681    0.01029681
     atom    5 type  3   force =    -0.00000478    0.00000478    0.00000478
     atom    6 type  1   force =     0.01029681   -0.01029681    0.01029681
     atom    7 type  3   force =     0.00000478   -0.00000478    0.00000478
     atom    8 type  1   force =     0.01029681    0.01029681   -0.01029681
     atom    9 type  3   force =     0.00000478    0.00000478   -0.00000478

     Total force =     0.035669     Total SCF correction =     0.000061
     Energy error            =      3.4E-03 Ry
     Gradient error          =      1.0E-02 Ry/Bohr

     number of scf cycles    =   6
     number of bfgs steps    =   4

     energy             old  =    -583.5636886678 Ry
     energy             new  =    -583.5670912518 Ry

     CASE: energy            _new < energy            _old

     new trust radius        =       0.0597989700 bohr
     new conv_thr            =       0.0000000100 Ry


ATOMIC_POSITIONS (angstrom)
Ni               7.7464845600        7.7464845600        7.7464845600
C                8.7915628453        8.7915628453        8.7915628453
O                9.4548941670        9.4548941670        9.4548941670
C                8.7915628453        6.7014062847        6.7014062847
O                9.4548941670        6.0380749630        6.0380749630
C                6.7014062847        8.7915628453        6.7014062847
O                6.0380749630        9.4548941670        6.0380749630
C                6.7014062847        6.7014062847        8.7915628453
O                6.0380749630        6.0380749630        9.4548941670



     Writing config-only to output data dir /home/duets/qe_workdirs/ni_co4__mc_dist__+0.06/ni_co4__mc_dist__+0.06.save/ :
     XML data file
     NEW-OLD atomic charge density approx. for the potential

     negative rho (up, down):  4.342E-03 0.000E+00

     total cpu time spent up to now is     2756.9 secs

     Self-consistent Calculation

     iteration #  1     ecut=    60.00 Ry     beta= 0.30
     Davidson diagonalization with overlap
     ethr =  1.00E-06,  avg # of iterations = 16.0

     negative rho (up, down):  4.351E-03 0.000E+00

     total cpu time spent up to now is     2775.5 secs

     total energy              =    -583.56830445 Ry
     estimated scf accuracy    <       0.00530959 Ry

     iteration #  2     ecut=    60.00 Ry     beta= 0.30
     Davidson diagonalization with overlap
     ethr =  9.15E-06,  avg # of iterations =  6.0

     negative rho (up, down):  4.409E-03 0.000E+00

     total cpu time spent up to now is     2790.1 secs

     total energy              =    -583.56794570 Ry
     estimated scf accuracy    <       0.01405849 Ry

     iteration #  3     ecut=    60.00 Ry     beta= 0.30
     Davidson diagonalization with overlap
     ethr =  9.15E-06,  avg # of iterations =  5.0

     negative rho (up, down):  4.400E-03 0.000E+00

     total cpu time spent up to now is     2801.6 secs

     total energy              =    -583.56901464 Ry
     estimated scf accuracy    <       0.00126635 Ry

     iteration #  4     ecut=    60.00 Ry     beta= 0.30
     Davidson diagonalization with overlap
     ethr =  2.18E-06,  avg # of iterations =  1.0

     negative rho (up, down):  4.470E-03 0.000E+00

     total cpu time spent up to now is     2812.0 secs

     total energy              =    -583.56896408 Ry
     estimated scf accuracy    <       0.00035289 Ry

     iteration #  5     ecut=    60.00 Ry     beta= 0.30
     Davidson diagonalization with overlap
     ethr =  6.08E-07,  avg # of iterations =  6.0

     negative rho (up, down):  4.454E-03 0.000E+00

     total cpu time spent up to now is     2826.3 secs

     total energy              =    -583.56903399 Ry
     estimated scf accuracy    <       0.00055939 Ry

     iteration #  6     ecut=    60.00 Ry     beta= 0.30
     Davidson diagonalization with overlap
     ethr =  6.08E-07,  avg # of iterations =  2.0

     negative rho (up, down):  4.450E-03 0.000E+00

     total cpu time spent up to now is     2836.6 secs

     total energy              =    -583.56904215 Ry
     estimated scf accuracy    <       0.00031374 Ry

     iteration #  7     ecut=    60.00 Ry     beta= 0.30
     Davidson diagonalization with overlap
     ethr =  5.41E-07,  avg # of iterations =  1.0

     negative rho (up, down):  4.451E-03 0.000E+00

     total cpu time spent up to now is     2847.0 secs

     total energy              =    -583.56899464 Ry
     estimated scf accuracy    <       0.00026636 Ry

     iteration #  8     ecut=    60.00 Ry     beta= 0.30
     Davidson diagonalization with overlap
     ethr =  4.59E-07,  avg # of iterations =  5.0

     negative rho (up, down):  4.454E-03 0.000E+00

     total cpu time spent up to now is     2861.3 secs

     total energy              =    -583.56907638 Ry
     estimated scf accuracy    <       0.00021287 Ry

     iteration #  9     ecut=    60.00 Ry     beta= 0.30
     Davidson diagonalization with overlap
     ethr =  3.67E-07,  avg # of iterations =  1.0

     negative rho (up, down):  4.455E-03 0.000E+00

     total cpu time spent up to now is     2871.5 secs

     total energy              =    -583.56905171 Ry
     estimated scf accuracy    <       0.00023104 Ry

     iteration # 10     ecut=    60.00 Ry     beta= 0.30
     Davidson diagonalization with overlap
     ethr =  3.67E-07,  avg # of iterations =  1.0

     negative rho (up, down):  4.457E-03 0.000E+00

     total cpu time spent up to now is     2882.0 secs

     total energy              =    -583.56904868 Ry
     estimated scf accuracy    <       0.00013139 Ry

     iteration # 11     ecut=    60.00 Ry     beta= 0.30
     Davidson diagonalization with overlap
     ethr =  2.27E-07,  avg # of iterations =  1.0

     negative rho (up, down):  4.459E-03 0.000E+00

     total cpu time spent up to now is     2895.3 secs

     total energy              =    -583.56904929 Ry
     estimated scf accuracy    <       0.00010672 Ry

     iteration # 12     ecut=    60.00 Ry     beta= 0.30
     Davidson diagonalization with overlap
     ethr =  1.84E-07,  avg # of iterations =  1.0

     negative rho (up, down):  4.460E-03 0.000E+00

     total cpu time spent up to now is     2905.8 secs

     total energy              =    -583.56904919 Ry
     estimated scf accuracy    <       0.00008326 Ry

     iteration # 13     ecut=    60.00 Ry     beta= 0.30
     Davidson diagonalization with overlap
     ethr =  1.44E-07,  avg # of iterations =  1.0

     negative rho (up, down):  4.462E-03 0.000E+00

     total cpu time spent up to now is     2916.0 secs

     total energy              =    -583.56906472 Ry
     estimated scf accuracy    <       0.00006440 Ry

     iteration # 14     ecut=    60.00 Ry     beta= 0.30
     Davidson diagonalization with overlap
     ethr =  1.11E-07,  avg # of iterations =  1.0

     negative rho (up, down):  4.462E-03 0.000E+00

     total cpu time spent up to now is     2929.4 secs

     total energy              =    -583.56905664 Ry
     estimated scf accuracy    <       0.00009554 Ry

     iteration # 15     ecut=    60.00 Ry     beta= 0.30
     Davidson diagonalization with overlap
     ethr =  1.11E-07,  avg # of iterations =  1.0

     negative rho (up, down):  4.462E-03 0.000E+00

     total cpu time spent up to now is     2939.9 secs

     total energy              =    -583.56903859 Ry
     estimated scf accuracy    <       0.00007102 Ry

     iteration # 16     ecut=    60.00 Ry     beta= 0.30
     Davidson diagonalization with overlap
     ethr =  1.11E-07,  avg # of iterations =  6.0

     negative rho (up, down):  4.462E-03 0.000E+00

     total cpu time spent up to now is     2951.2 secs

     total energy              =    -583.56908912 Ry
     estimated scf accuracy    <       0.00007247 Ry

     iteration # 17     ecut=    60.00 Ry     beta= 0.30
     Davidson diagonalization with overlap
     ethr =  1.11E-07,  avg # of iterations =  6.0

     negative rho (up, down):  4.463E-03 0.000E+00

     total cpu time spent up to now is     2965.6 secs

     total energy              =    -583.56908992 Ry
     estimated scf accuracy    <       0.00074342 Ry

     iteration # 18     ecut=    60.00 Ry     beta= 0.30
     Davidson diagonalization with overlap
     ethr =  1.11E-07,  avg # of iterations =  1.0

     negative rho (up, down):  4.464E-03 0.000E+00

     total cpu time spent up to now is     2976.0 secs

     total energy              =    -583.56909293 Ry
     estimated scf accuracy    <       0.00063029 Ry

     iteration # 19     ecut=    60.00 Ry     beta= 0.30
     Davidson diagonalization with overlap
     ethr =  1.11E-07,  avg # of iterations =  1.0

     negative rho (up, down):  4.464E-03 0.000E+00

     total cpu time spent up to now is     2986.7 secs

     total energy              =    -583.56907871 Ry
     estimated scf accuracy    <       0.00062396 Ry

     iteration # 20     ecut=    60.00 Ry     beta= 0.30
     Davidson diagonalization with overlap
     ethr =  1.11E-07,  avg # of iterations =  2.0

     negative rho (up, down):  4.465E-03 0.000E+00

     total cpu time spent up to now is     3000.5 secs

     total energy              =    -583.56906062 Ry
     estimated scf accuracy    <       0.00049494 Ry

     iteration # 21     ecut=    60.00 Ry     beta= 0.30
     Davidson diagonalization with overlap
     ethr =  1.11E-07,  avg # of iterations =  4.0

     negative rho (up, down):  4.464E-03 0.000E+00

     total cpu time spent up to now is     3011.3 secs

     total energy              =    -583.56910691 Ry
     estimated scf accuracy    <       0.00026281 Ry

     iteration # 22     ecut=    60.00 Ry     beta= 0.30
     Davidson diagonalization with overlap
     ethr =  1.11E-07,  avg # of iterations =  5.0

     negative rho (up, down):  4.465E-03 0.000E+00

     total cpu time spent up to now is     3022.2 secs

     total energy              =    -583.56905230 Ry
     estimated scf accuracy    <       0.00065981 Ry

     iteration # 23     ecut=    60.00 Ry     beta= 0.30
     Davidson diagonalization with overlap
     ethr =  1.11E-07,  avg # of iterations =  5.0

     negative rho (up, down):  4.465E-03 0.000E+00

     total cpu time spent up to now is     3036.3 secs

     total energy              =    -583.56904672 Ry
     estimated scf accuracy    <       0.00015018 Ry

     iteration # 24     ecut=    60.00 Ry     beta= 0.30
     Davidson diagonalization with overlap
     ethr =  1.11E-07,  avg # of iterations =  4.0

     negative rho (up, down):  4.464E-03 0.000E+00

     total cpu time spent up to now is     3047.5 secs

     total energy              =    -583.56905310 Ry
     estimated scf accuracy    <       0.00001865 Ry

     iteration # 25     ecut=    60.00 Ry     beta= 0.30
     Davidson diagonalization with overlap
     ethr =  3.22E-08,  avg # of iterations =  2.0

     negative rho (up, down):  4.464E-03 0.000E+00

     total cpu time spent up to now is     3058.4 secs

     total energy              =    -583.56905228 Ry
     estimated scf accuracy    <       0.00001028 Ry

     iteration # 26     ecut=    60.00 Ry     beta= 0.30
     Davidson diagonalization with overlap
     ethr =  1.77E-08,  avg # of iterations =  5.0

     negative rho (up, down):  4.464E-03 0.000E+00

     total cpu time spent up to now is     3072.9 secs

     total energy              =    -583.56905515 Ry
     estimated scf accuracy    <       0.00001188 Ry

     iteration # 27     ecut=    60.00 Ry     beta= 0.30
     Davidson diagonalization with overlap
     ethr =  1.77E-08,  avg # of iterations =  1.0

     negative rho (up, down):  4.463E-03 0.000E+00

     total cpu time spent up to now is     3083.2 secs

     total energy              =    -583.56905356 Ry
     estimated scf accuracy    <       0.00000684 Ry

     iteration # 28     ecut=    60.00 Ry     beta= 0.30
     Davidson diagonalization with overlap
     ethr =  1.18E-08,  avg # of iterations =  6.0

     negative rho (up, down):  4.464E-03 0.000E+00

     total cpu time spent up to now is     3094.6 secs

     total energy              =    -583.56905486 Ry
     estimated scf accuracy    <       0.00001044 Ry

     iteration # 29     ecut=    60.00 Ry     beta= 0.30
     Davidson diagonalization with overlap
     ethr =  1.18E-08,  avg # of iterations =  2.0

     negative rho (up, down):  4.464E-03 0.000E+00

     total cpu time spent up to now is     3108.2 secs

     total energy              =    -583.56905435 Ry
     estimated scf accuracy    <       0.00000390 Ry

     iteration # 30     ecut=    60.00 Ry     beta= 0.30
     Davidson diagonalization with overlap
     ethr =  6.72E-09,  avg # of iterations =  6.0

     negative rho (up, down):  4.464E-03 0.000E+00

     total cpu time spent up to now is     3119.4 secs

     total energy              =    -583.56905527 Ry
     estimated scf accuracy    <       0.00000712 Ry

     iteration # 31     ecut=    60.00 Ry     beta= 0.30
     Davidson diagonalization with overlap
     ethr =  6.72E-09,  avg # of iterations =  2.0

     negative rho (up, down):  4.463E-03 0.000E+00

     total cpu time spent up to now is     3129.9 secs

     total energy              =    -583.56905530 Ry
     estimated scf accuracy    <       0.00000321 Ry

     iteration # 32     ecut=    60.00 Ry     beta= 0.30
     Davidson diagonalization with overlap
     ethr =  5.54E-09,  avg # of iterations =  1.0

     negative rho (up, down):  4.463E-03 0.000E+00

     total cpu time spent up to now is     3143.7 secs

     total energy              =    -583.56905532 Ry
     estimated scf accuracy    <       0.00000205 Ry

     iteration # 33     ecut=    60.00 Ry     beta= 0.30
     Davidson diagonalization with overlap
     ethr =  3.53E-09,  avg # of iterations =  2.0

     negative rho (up, down):  4.463E-03 0.000E+00

     total cpu time spent up to now is     3154.1 secs

     total energy              =    -583.56905592 Ry
     estimated scf accuracy    <       0.00000116 Ry

     iteration # 34     ecut=    60.00 Ry     beta= 0.30
     Davidson diagonalization with overlap
     ethr =  2.00E-09,  avg # of iterations =  3.0

     negative rho (up, down):  4.464E-03 0.000E+00

     total cpu time spent up to now is     3164.8 secs

     total energy              =    -583.56905616 Ry
     estimated scf accuracy    <       0.00000380 Ry

     iteration # 35     ecut=    60.00 Ry     beta= 0.30
     Davidson diagonalization with overlap
     ethr =  2.00E-09,  avg # of iterations =  2.0

     negative rho (up, down):  4.464E-03 0.000E+00

     total cpu time spent up to now is     3178.7 secs

     total energy              =    -583.56905687 Ry
     estimated scf accuracy    <       0.00000505 Ry

     iteration # 36     ecut=    60.00 Ry     beta= 0.30
     Davidson diagonalization with overlap
     ethr =  2.00E-09,  avg # of iterations =  6.0

     negative rho (up, down):  4.463E-03 0.000E+00

     total cpu time spent up to now is     3189.9 secs

     total energy              =    -583.56905689 Ry
     estimated scf accuracy    <       0.00002161 Ry

     iteration # 37     ecut=    60.00 Ry     beta= 0.30
     Davidson diagonalization with overlap
     ethr =  2.00E-09,  avg # of iterations =  1.0

     negative rho (up, down):  4.463E-03 0.000E+00

     total cpu time spent up to now is     3200.2 secs

     total energy              =    -583.56905343 Ry
     estimated scf accuracy    <       0.00001919 Ry

     iteration # 38     ecut=    60.00 Ry     beta= 0.30
     Davidson diagonalization with overlap
     ethr =  2.00E-09,  avg # of iterations =  8.0

     negative rho (up, down):  4.464E-03 0.000E+00

     total cpu time spent up to now is     3215.5 secs

     total energy              =    -583.56905529 Ry
     estimated scf accuracy    <       0.00000093 Ry

     iteration # 39     ecut=    60.00 Ry     beta= 0.30
     Davidson diagonalization with overlap
     ethr =  1.60E-09,  avg # of iterations =  6.0

     negative rho (up, down):  4.464E-03 0.000E+00

     total cpu time spent up to now is     3226.7 secs

     total energy              =    -583.56905543 Ry
     estimated scf accuracy    <       0.00000095 Ry

     iteration # 40     ecut=    60.00 Ry     beta= 0.30
     Davidson diagonalization with overlap
     ethr =  1.60E-09,  avg # of iterations =  2.0

     negative rho (up, down):  4.463E-03 0.000E+00

     total cpu time spent up to now is     3237.3 secs

     total energy              =    -583.56905544 Ry
     estimated scf accuracy    <       0.00000027 Ry

     iteration # 41     ecut=    60.00 Ry     beta= 0.30
     Davidson diagonalization with overlap
     ethr =  4.69E-10,  avg # of iterations =  5.0

     negative rho (up, down):  4.463E-03 0.000E+00

     total cpu time spent up to now is     3251.6 secs

     total energy              =    -583.56905551 Ry
     estimated scf accuracy    <       0.00000025 Ry

     iteration # 42     ecut=    60.00 Ry     beta= 0.30
     Davidson diagonalization with overlap
     ethr =  4.31E-10,  avg # of iterations =  1.0

     negative rho (up, down):  4.463E-03 0.000E+00

     total cpu time spent up to now is     3262.0 secs

     total energy              =    -583.56905550 Ry
     estimated scf accuracy    <       0.00000017 Ry

     iteration # 43     ecut=    60.00 Ry     beta= 0.30
     Davidson diagonalization with overlap
     ethr =  2.98E-10,  avg # of iterations =  1.0

     negative rho (up, down):  4.463E-03 0.000E+00

     total cpu time spent up to now is     3272.2 secs

     total energy              =    -583.56905550 Ry
     estimated scf accuracy    <       0.00000013 Ry

     iteration # 44     ecut=    60.00 Ry     beta= 0.30
     Davidson diagonalization with overlap
     ethr =  2.28E-10,  avg # of iterations =  1.0

     negative rho (up, down):  4.464E-03 0.000E+00

     total cpu time spent up to now is     3286.2 secs

     total energy              =    -583.56905546 Ry
     estimated scf accuracy    <       0.00000011 Ry

     iteration # 45     ecut=    60.00 Ry     beta= 0.30
     Davidson diagonalization with overlap
     ethr =  1.83E-10,  avg # of iterations =  6.0

     negative rho (up, down):  4.464E-03 0.000E+00

     total cpu time spent up to now is     3297.9 secs

     total energy              =    -583.56905555 Ry
     estimated scf accuracy    <       0.00000050 Ry

     iteration # 46     ecut=    60.00 Ry     beta= 0.30
     Davidson diagonalization with overlap
     ethr =  1.83E-10,  avg # of iterations =  1.0

     negative rho (up, down):  4.463E-03 0.000E+00

     total cpu time spent up to now is     3308.1 secs

     total energy              =    -583.56905553 Ry
     estimated scf accuracy    <       0.00000047 Ry

     iteration # 47     ecut=    60.00 Ry     beta= 0.30
     Davidson diagonalization with overlap
     ethr =  1.83E-10,  avg # of iterations =  1.0

     negative rho (up, down):  4.463E-03 0.000E+00

     total cpu time spent up to now is     3321.6 secs

     total energy              =    -583.56905551 Ry
     estimated scf accuracy    <       0.00000042 Ry

     iteration # 48     ecut=    60.00 Ry     beta= 0.30
     Davidson diagonalization with overlap
     ethr =  1.83E-10,  avg # of iterations =  2.0

     negative rho (up, down):  4.463E-03 0.000E+00

     total cpu time spent up to now is     3331.9 secs

     total energy              =    -583.56905550 Ry
     estimated scf accuracy    <       0.00000026 Ry

     iteration # 49     ecut=    60.00 Ry     beta= 0.30
     Davidson diagonalization with overlap
     ethr =  1.83E-10,  avg # of iterations =  4.0

     negative rho (up, down):  4.463E-03 0.000E+00

     total cpu time spent up to now is     3342.9 secs

     total energy              =    -583.56905551 Ry
     estimated scf accuracy    <       0.00000002 Ry

     iteration # 50     ecut=    60.00 Ry     beta= 0.30
     Davidson diagonalization with overlap
     ethr =  4.13E-11,  avg # of iterations =  1.0

     negative rho (up, down):  4.463E-03 0.000E+00

     total cpu time spent up to now is     3356.5 secs

     total energy              =    -583.56905550 Ry
     estimated scf accuracy    <       0.00000002 Ry

     iteration # 51     ecut=    60.00 Ry     beta= 0.30
     Davidson diagonalization with overlap
     ethr =  3.27E-11,  avg # of iterations =  2.0

     negative rho (up, down):  4.463E-03 0.000E+00

     total cpu time spent up to now is     3366.8 secs

     End of self-consistent calculation

          k = 0.0000 0.0000 0.0000 ( 98475 PWs)   bands (ev):

  -109.2502 -69.6365 -69.6365 -69.6365 -28.9845 -28.9759 -28.9759 -28.9759
   -14.9610 -14.2007 -14.2007 -14.2007 -12.3700 -11.8037 -11.8037 -11.7590
   -11.7590 -11.7590 -11.5283 -11.5283 -11.5283 -11.3555 -11.3555 -11.3555
    -7.8288  -7.8288  -6.6834  -6.6834  -6.6834

     highest occupied level (ev):    -6.6834

!    total energy              =    -583.56905549 Ry
     estimated scf accuracy    <          9.9E-09 Ry

     The total energy is the sum of the following terms:
     one-electron contribution =   -2018.36431586 Ry
     hartree contribution      =    1010.04257143 Ry
     xc contribution           =     -82.57535902 Ry
     ewald contribution        =     570.17916271 Ry
     one-center paw contrib.   =     -62.85111475 Ry

     convergence has been achieved in  51 iterations

     negative rho (up, down):  4.463E-03 0.000E+00

     Forces acting on atoms (cartesian axes, Ry/au):

     atom    1 type  2   force =     0.00000000    0.00000000    0.00000000
     atom    2 type  1   force =    -0.00284661   -0.00284661   -0.00284661
     atom    3 type  3   force =     0.00358664    0.00358664    0.00358664
     atom    4 type  1   force =    -0.00284661    0.00284661    0.00284661
     atom    5 type  3   force =     0.00358664   -0.00358664   -0.00358664
     atom    6 type  1   force =     0.00284661   -0.00284661    0.00284661
     atom    7 type  3   force =    -0.00358664    0.00358664   -0.00358664
     atom    8 type  1   force =     0.00284661    0.00284661   -0.00284661
     atom    9 type  3   force =    -0.00358664   -0.00358664    0.00358664

     Total force =     0.015862     Total SCF correction =     0.000166
     Energy error            =      2.0E-03 Ry
     Gradient error          =      3.6E-03 Ry/Bohr

     number of scf cycles    =   7
     number of bfgs steps    =   5

     energy             old  =    -583.5670912518 Ry
     energy             new  =    -583.5690554943 Ry

     CASE: energy            _new < energy            _old

     new trust radius        =       0.0056341195 bohr
     new conv_thr            =       0.0000000036 Ry


ATOMIC_POSITIONS (angstrom)
Ni               7.7464845600        7.7464845600        7.7464845600
C                8.7927502845        8.7927502845        8.7927502845
O                9.4566155066        9.4566155066        9.4566155066
C                8.7927502845        6.7002188455        6.7002188455
O                9.4566155066        6.0363536234        6.0363536234
C                6.7002188455        8.7927502845        6.7002188455
O                6.0363536234        9.4566155066        6.0363536234
C                6.7002188455        6.7002188455        8.7927502845
O                6.0363536234        6.0363536234        9.4566155066



     Writing config-only to output data dir /home/duets/qe_workdirs/ni_co4__mc_dist__+0.06/ni_co4__mc_dist__+0.06.save/ :
     XML data file
     NEW-OLD atomic charge density approx. for the potential

     negative rho (up, down):  4.461E-03 0.000E+00

     total cpu time spent up to now is     3378.6 secs

     Self-consistent Calculation

     iteration #  1     ecut=    60.00 Ry     beta= 0.30
     Davidson diagonalization with overlap
     ethr =  1.00E-06,  avg # of iterations =  7.0

     Threshold (ethr) on eigenvalues was too large:
     Diagonalizing with lowered threshold

     Davidson diagonalization with overlap
     ethr =  5.46E-08,  avg # of iterations =  6.0

     negative rho (up, down):  4.462E-03 0.000E+00

     total cpu time spent up to now is     3403.0 secs

     total energy              =    -583.56909274 Ry
     estimated scf accuracy    <       0.00003311 Ry

     iteration #  2     ecut=    60.00 Ry     beta= 0.30
     Davidson diagonalization with overlap
     ethr =  5.71E-08,  avg # of iterations =  2.0

     negative rho (up, down):  4.462E-03 0.000E+00

     total cpu time spent up to now is     3413.8 secs

     total energy              =    -583.56909286 Ry
     estimated scf accuracy    <       0.00001212 Ry

     iteration #  3     ecut=    60.00 Ry     beta= 0.30
     Davidson diagonalization with overlap
     ethr =  2.09E-08,  avg # of iterations =  4.0

     negative rho (up, down):  4.462E-03 0.000E+00

     total cpu time spent up to now is     3428.4 secs

     total energy              =    -583.56909327 Ry
     estimated scf accuracy    <       0.00000466 Ry

     iteration #  4     ecut=    60.00 Ry     beta= 0.30
     Davidson diagonalization with overlap
     ethr =  8.03E-09,  avg # of iterations =  4.0

     negative rho (up, down):  4.462E-03 0.000E+00

     total cpu time spent up to now is     3439.5 secs

     total energy              =    -583.56909143 Ry
     estimated scf accuracy    <       0.00000400 Ry

     iteration #  5     ecut=    60.00 Ry     beta= 0.30
     Davidson diagonalization with overlap
     ethr =  6.90E-09,  avg # of iterations =  8.0

     negative rho (up, down):  4.461E-03 0.000E+00

     total cpu time spent up to now is     3451.5 secs

     total energy              =    -583.56909044 Ry
     estimated scf accuracy    <       0.00004511 Ry

     iteration #  6     ecut=    60.00 Ry     beta= 0.30
     Davidson diagonalization with overlap
     ethr =  6.90E-09,  avg # of iterations =  6.0

     negative rho (up, down):  4.461E-03 0.000E+00

     total cpu time spent up to now is     3466.3 secs

     total energy              =    -583.56909254 Ry
     estimated scf accuracy    <       0.00000144 Ry

     iteration #  7     ecut=    60.00 Ry     beta= 0.30
     Davidson diagonalization with overlap
     ethr =  2.48E-09,  avg # of iterations =  6.0

     negative rho (up, down):  4.461E-03 0.000E+00

     total cpu time spent up to now is     3477.6 secs

     total energy              =    -583.56909274 Ry
     estimated scf accuracy    <       0.00000154 Ry

     iteration #  8     ecut=    60.00 Ry     beta= 0.30
     Davidson diagonalization with overlap
     ethr =  2.48E-09,  avg # of iterations =  2.0

     negative rho (up, down):  4.461E-03 0.000E+00

     total cpu time spent up to now is     3488.1 secs

     total energy              =    -583.56909287 Ry
     estimated scf accuracy    <       0.00000028 Ry

     iteration #  9     ecut=    60.00 Ry     beta= 0.30
     Davidson diagonalization with overlap
     ethr =  4.74E-10,  avg # of iterations =  5.0

     negative rho (up, down):  4.461E-03 0.000E+00

     total cpu time spent up to now is     3502.6 secs

     total energy              =    -583.56909294 Ry
     estimated scf accuracy    <       0.00000021 Ry

     iteration # 10     ecut=    60.00 Ry     beta= 0.30
     Davidson diagonalization with overlap
     ethr =  3.55E-10,  avg # of iterations =  1.0

     negative rho (up, down):  4.461E-03 0.000E+00

     total cpu time spent up to now is     3512.7 secs

     total energy              =    -583.56909293 Ry
     estimated scf accuracy    <       0.00000016 Ry

     iteration # 11     ecut=    60.00 Ry     beta= 0.30
     Davidson diagonalization with overlap
     ethr =  2.68E-10,  avg # of iterations =  2.0

     negative rho (up, down):  4.461E-03 0.000E+00

     total cpu time spent up to now is     3523.4 secs

     total energy              =    -583.56909294 Ry
     estimated scf accuracy    <       0.00000011 Ry

     iteration # 12     ecut=    60.00 Ry     beta= 0.30
     Davidson diagonalization with overlap
     ethr =  1.82E-10,  avg # of iterations =  1.0

     negative rho (up, down):  4.461E-03 0.000E+00

     total cpu time spent up to now is     3537.1 secs

     total energy              =    -583.56909293 Ry
     estimated scf accuracy    <       0.00000007 Ry

     iteration # 13     ecut=    60.00 Ry     beta= 0.30
     Davidson diagonalization with overlap
     ethr =  1.13E-10,  avg # of iterations =  5.0

     negative rho (up, down):  4.461E-03 0.000E+00

     total cpu time spent up to now is     3548.0 secs

     total energy              =    -583.56909295 Ry
     estimated scf accuracy    <       0.00000004 Ry

     iteration # 14     ecut=    60.00 Ry     beta= 0.30
     Davidson diagonalization with overlap
     ethr =  6.97E-11,  avg # of iterations =  5.0

     negative rho (up, down):  4.461E-03 0.000E+00

     total cpu time spent up to now is     3559.1 secs

     total energy              =    -583.56909294 Ry
     estimated scf accuracy    <       0.00000021 Ry

     iteration # 15     ecut=    60.00 Ry     beta= 0.30
     Davidson diagonalization with overlap
     ethr =  6.97E-11,  avg # of iterations =  3.0

     negative rho (up, down):  4.461E-03 0.000E+00

     total cpu time spent up to now is     3573.1 secs

     total energy              =    -583.56909294 Ry
     estimated scf accuracy    <       0.00000010 Ry

     iteration # 16     ecut=    60.00 Ry     beta= 0.30
     Davidson diagonalization with overlap
     ethr =  6.97E-11,  avg # of iterations =  4.0

     negative rho (up, down):  4.461E-03 0.000E+00

     total cpu time spent up to now is     3583.8 secs

     total energy              =    -583.56909294 Ry
     estimated scf accuracy    <       0.00000004 Ry

     iteration # 17     ecut=    60.00 Ry     beta= 0.30
     Davidson diagonalization with overlap
     ethr =  6.78E-11,  avg # of iterations =  1.0

     negative rho (up, down):  4.461E-03 0.000E+00

     total cpu time spent up to now is     3594.1 secs

     total energy              =    -583.56909293 Ry
     estimated scf accuracy    <       0.00000003 Ry

     iteration # 18     ecut=    60.00 Ry     beta= 0.30
     Davidson diagonalization with overlap
     ethr =  5.70E-11,  avg # of iterations =  5.0

     negative rho (up, down):  4.461E-03 0.000E+00

     total cpu time spent up to now is     3608.0 secs

     End of self-consistent calculation

          k = 0.0000 0.0000 0.0000 ( 98475 PWs)   bands (ev):

  -109.2416 -69.6278 -69.6278 -69.6278 -28.9731 -28.9646 -28.9646 -28.9646
   -14.9586 -14.2028 -14.2028 -14.2028 -12.3650 -11.7956 -11.7956 -11.7517
   -11.7517 -11.7517 -11.5224 -11.5224 -11.5224 -11.3481 -11.3481 -11.3481
    -7.8201  -7.8201  -6.6810  -6.6810  -6.6810

     highest occupied level (ev):    -6.6810

!    total energy              =    -583.56909294 Ry
     estimated scf accuracy    <          8.5E-11 Ry

     The total energy is the sum of the following terms:
     one-electron contribution =   -2017.23122379 Ry
     hartree contribution      =    1009.48398109 Ry
     xc contribution           =     -82.56450212 Ry
     ewald contribution        =     569.59389461 Ry
     one-center paw contrib.   =     -62.85124273 Ry

     convergence has been achieved in  18 iterations

     negative rho (up, down):  4.461E-03 0.000E+00

     Forces acting on atoms (cartesian axes, Ry/au):

     atom    1 type  2   force =     0.00000000    0.00000000    0.00000000
     atom    2 type  1   force =    -0.00132613   -0.00132613   -0.00132613
     atom    3 type  3   force =     0.00121242    0.00121242    0.00121242
     atom    4 type  1   force =    -0.00132613    0.00132613    0.00132613
     atom    5 type  3   force =     0.00121242   -0.00121242   -0.00121242
     atom    6 type  1   force =     0.00132613   -0.00132613    0.00132613
     atom    7 type  3   force =    -0.00121242    0.00121242   -0.00121242
     atom    8 type  1   force =     0.00132613    0.00132613   -0.00132613
     atom    9 type  3   force =    -0.00121242   -0.00121242    0.00121242

     Total force =     0.006224     Total SCF correction =     0.000006
     Energy error            =      3.7E-05 Ry
     Gradient error          =      1.3E-03 Ry/Bohr

     number of scf cycles    =   8
     number of bfgs steps    =   6

     energy             old  =    -583.5690554943 Ry
     energy             new  =    -583.5690929397 Ry

     CASE: energy            _new < energy            _old

     new trust radius        =       0.0004307795 bohr
     new conv_thr            =       0.0000000004 Ry


ATOMIC_POSITIONS (angstrom)
Ni               7.7464845600        7.7464845600        7.7464845600
C                8.7926188737        8.7926188737        8.7926188737
O                9.4567471186        9.4567471186        9.4567471186
C                8.7926188737        6.7003502563        6.7003502563
O                9.4567471186        6.0362220114        6.0362220114
C                6.7003502563        8.7926188737        6.7003502563
O                6.0362220114        9.4567471186        6.0362220114
C                6.7003502563        6.7003502563        8.7926188737
O                6.0362220114        6.0362220114        9.4567471186



     Writing config-only to output data dir /home/duets/qe_workdirs/ni_co4__mc_dist__+0.06/ni_co4__mc_dist__+0.06.save/ :
     XML data file
     NEW-OLD atomic charge density approx. for the potential

     negative rho (up, down):  4.461E-03 0.000E+00

     total cpu time spent up to now is     3619.5 secs

     Self-consistent Calculation

     iteration #  1     ecut=    60.00 Ry     beta= 0.30
     Davidson diagonalization with overlap
     ethr =  1.00E-06,  avg # of iterations =  2.0

     Threshold (ethr) on eigenvalues was too large:
     Diagonalizing with lowered threshold

     Davidson diagonalization with overlap
     ethr =  8.15E-10,  avg # of iterations =  9.0

     negative rho (up, down):  4.460E-03 0.000E+00

     total cpu time spent up to now is     3644.0 secs

     total energy              =    -583.56909684 Ry
     estimated scf accuracy    <       0.00000211 Ry

     iteration #  2     ecut=    60.00 Ry     beta= 0.30
     Davidson diagonalization with overlap
     ethr =  3.64E-09,  avg # of iterations =  6.0

     negative rho (up, down):  4.460E-03 0.000E+00

     total cpu time spent up to now is     3655.2 secs

     total energy              =    -583.56909664 Ry
     estimated scf accuracy    <       0.00000626 Ry

     iteration #  3     ecut=    60.00 Ry     beta= 0.30
     Davidson diagonalization with overlap
     ethr =  3.64E-09,  avg # of iterations =  6.0

     negative rho (up, down):  4.460E-03 0.000E+00

     total cpu time spent up to now is     3666.4 secs

     total energy              =    -583.56909705 Ry
     estimated scf accuracy    <       0.00000044 Ry

     iteration #  4     ecut=    60.00 Ry     beta= 0.30
     Davidson diagonalization with overlap
     ethr =  7.65E-10,  avg # of iterations =  2.0

     negative rho (up, down):  4.459E-03 0.000E+00

     total cpu time spent up to now is     3680.4 secs

     total energy              =    -583.56909713 Ry
     estimated scf accuracy    <       0.00000007 Ry

     iteration #  5     ecut=    60.00 Ry     beta= 0.30
     Davidson diagonalization with overlap
     ethr =  1.20E-10,  avg # of iterations =  5.0

     negative rho (up, down):  4.459E-03 0.000E+00

     total cpu time spent up to now is     3692.6 secs

     total energy              =    -583.56909714 Ry
     estimated scf accuracy    <       0.00000009 Ry

     iteration #  6     ecut=    60.00 Ry     beta= 0.30
     Davidson diagonalization with overlap
     ethr =  1.20E-10,  avg # of iterations =  5.0

     negative rho (up, down):  4.459E-03 0.000E+00

     total cpu time spent up to now is     3706.5 secs

     total energy              =    -583.56909715 Ry
     estimated scf accuracy    <          9.9E-09 Ry

     iteration #  7     ecut=    60.00 Ry     beta= 0.30
     Davidson diagonalization with overlap
     ethr =  1.70E-11,  avg # of iterations =  3.0

     negative rho (up, down):  4.459E-03 0.000E+00

     total cpu time spent up to now is     3717.6 secs

     total energy              =    -583.56909715 Ry
     estimated scf accuracy    <          1.1E-09 Ry

     iteration #  8     ecut=    60.00 Ry     beta= 0.30
     Davidson diagonalization with overlap
     ethr =  1.85E-12,  avg # of iterations =  6.0

     negative rho (up, down):  4.459E-03 0.000E+00

     total cpu time spent up to now is     3730.0 secs

     total energy              =    -583.56909715 Ry
     estimated scf accuracy    <          3.1E-09 Ry

     iteration #  9     ecut=    60.00 Ry     beta= 0.30
     Davidson diagonalization with overlap
     ethr =  1.85E-12,  avg # of iterations =  3.0

     negative rho (up, down):  4.459E-03 0.000E+00

     total cpu time spent up to now is     3744.1 secs

     total energy              =    -583.56909715 Ry
     estimated scf accuracy    <          6.0E-10 Ry

     iteration # 10     ecut=    60.00 Ry     beta= 0.30
     Davidson diagonalization with overlap
     ethr =  1.04E-12,  avg # of iterations =  6.0

     negative rho (up, down):  4.459E-03 0.000E+00

     total cpu time spent up to now is     3756.9 secs

     total energy              =    -583.56909715 Ry
     estimated scf accuracy    <          3.5E-09 Ry

     iteration # 11     ecut=    60.00 Ry     beta= 0.30
     Davidson diagonalization with overlap
     ethr =  1.04E-12,  avg # of iterations =  5.0

     negative rho (up, down):  4.459E-03 0.000E+00

     total cpu time spent up to now is     3768.4 secs

     total energy              =    -583.56909715 Ry
     estimated scf accuracy    <          4.4E-10 Ry

     iteration # 12     ecut=    60.00 Ry     beta= 0.30
     Davidson diagonalization with overlap
     ethr =  7.64E-13,  avg # of iterations =  4.0

     negative rho (up, down):  4.459E-03 0.000E+00

     total cpu time spent up to now is     3781.7 secs

     End of self-consistent calculation

          k = 0.0000 0.0000 0.0000 ( 98475 PWs)   bands (ev):

  -109.2474 -69.6336 -69.6336 -69.6336 -28.9670 -28.9585 -28.9585 -28.9585
   -14.9623 -14.2047 -14.2047 -14.2047 -12.3655 -11.7929 -11.7929 -11.7488
   -11.7488 -11.7488 -11.5190 -11.5190 -11.5190 -11.3506 -11.3506 -11.3506
    -7.8253  -7.8253  -6.6853  -6.6853  -6.6853

     highest occupied level (ev):    -6.6853

!    total energy              =    -583.56909715 Ry
     estimated scf accuracy    <          3.8E-11 Ry

     The total energy is the sum of the following terms:
     one-electron contribution =   -2017.17993358 Ry
     hartree contribution      =    1009.45554603 Ry
     xc contribution           =     -82.56137841 Ry
     ewald contribution        =     569.56795911 Ry
     one-center paw contrib.   =     -62.85129030 Ry

     convergence has been achieved in  12 iterations

     negative rho (up, down):  4.459E-03 0.000E+00

     Forces acting on atoms (cartesian axes, Ry/au):

     atom    1 type  2   force =     0.00000000    0.00000000    0.00000000
     atom    2 type  1   force =    -0.00015428   -0.00015428   -0.00015428
     atom    3 type  3   force =     0.00011613    0.00011613    0.00011613
     atom    4 type  1   force =    -0.00015428    0.00015428    0.00015428
     atom    5 type  3   force =     0.00011613   -0.00011613   -0.00011613
     atom    6 type  1   force =     0.00015428   -0.00015428    0.00015428
     atom    7 type  3   force =    -0.00011613    0.00011613   -0.00011613
     atom    8 type  1   force =     0.00015428    0.00015428   -0.00015428
     atom    9 type  3   force =    -0.00011613   -0.00011613    0.00011613

     Total force =     0.000669     Total SCF correction =     0.000012
     Energy error            =      4.2E-06 Ry
     Gradient error          =      1.5E-04 Ry/Bohr

     number of scf cycles    =   9
     number of bfgs steps    =   7

     energy             old  =    -583.5690929397 Ry
     energy             new  =    -583.5690971506 Ry

     CASE: energy            _new < energy            _old

     new trust radius        =       0.0001817241 bohr
     new conv_thr            =            1.0E-10 Ry


ATOMIC_POSITIONS (angstrom)
Ni               7.7464845600        7.7464845600        7.7464845600
C                8.7925633533        8.7925633533        8.7925633533
O                9.4567202065        9.4567202065        9.4567202065
C                8.7925633533        6.7004057767        6.7004057767
O                9.4567202065        6.0362489235        6.0362489235
C                6.7004057767        8.7925633533        6.7004057767
O                6.0362489235        9.4567202065        6.0362489235
C                6.7004057767        6.7004057767        8.7925633533
O                6.0362489235        6.0362489235        9.4567202065



     Writing config-only to output data dir /home/duets/qe_workdirs/ni_co4__mc_dist__+0.06/ni_co4__mc_dist__+0.06.save/ :
     XML data file
     NEW-OLD atomic charge density approx. for the potential

     negative rho (up, down):  4.459E-03 0.000E+00

     total cpu time spent up to now is     3793.3 secs

     Self-consistent Calculation

     iteration #  1     ecut=    60.00 Ry     beta= 0.30
     Davidson diagonalization with overlap
     ethr =  1.00E-06,  avg # of iterations =  2.0

     Threshold (ethr) on eigenvalues was too large:
     Diagonalizing with lowered threshold

     Davidson diagonalization with overlap
     ethr =  1.48E-10,  avg # of iterations =  7.0

     negative rho (up, down):  4.459E-03 0.000E+00

     total cpu time spent up to now is     3816.1 secs

     total energy              =    -583.56909720 Ry
     estimated scf accuracy    <       0.00000007 Ry

     iteration #  2     ecut=    60.00 Ry     beta= 0.30
     Davidson diagonalization with overlap
     ethr =  1.15E-10,  avg # of iterations =  5.0

     negative rho (up, down):  4.459E-03 0.000E+00

     total cpu time spent up to now is     3828.1 secs

     total energy              =    -583.56909721 Ry
     estimated scf accuracy    <       0.00000009 Ry

     iteration #  3     ecut=    60.00 Ry     beta= 0.30
     Davidson diagonalization with overlap
     ethr =  1.15E-10,  avg # of iterations =  2.0

     negative rho (up, down):  4.459E-03 0.000E+00

     total cpu time spent up to now is     3838.6 secs

     total energy              =    -583.56909720 Ry
     estimated scf accuracy    <       0.00000002 Ry

     iteration #  4     ecut=    60.00 Ry     beta= 0.30
     Davidson diagonalization with overlap
     ethr =  4.29E-11,  avg # of iterations =  7.0

     negative rho (up, down):  4.459E-03 0.000E+00

     total cpu time spent up to now is     3853.4 secs

     total energy              =    -583.56909719 Ry
     estimated scf accuracy    <       0.00000034 Ry

     iteration #  5     ecut=    60.00 Ry     beta= 0.30
     Davidson diagonalization with overlap
     ethr =  4.29E-11,  avg # of iterations =  7.0

     negative rho (up, down):  4.459E-03 0.000E+00

     total cpu time spent up to now is     3865.0 secs

     total energy              =    -583.56909722 Ry
     estimated scf accuracy    <          2.0E-09 Ry

     iteration #  6     ecut=    60.00 Ry     beta= 0.30
     Davidson diagonalization with overlap
     ethr =  3.38E-12,  avg # of iterations =  5.0

     negative rho (up, down):  4.459E-03 0.000E+00

     total cpu time spent up to now is     3876.2 secs

     total energy              =    -583.56909722 Ry
     estimated scf accuracy    <       0.00000001 Ry

     iteration #  7     ecut=    60.00 Ry     beta= 0.30
     Davidson diagonalization with overlap
     ethr =  3.38E-12,  avg # of iterations =  7.0

     negative rho (up, down):  4.459E-03 0.000E+00

     total cpu time spent up to now is     3891.8 secs

     total energy              =    -583.56909722 Ry
     estimated scf accuracy    <          7.5E-09 Ry

     iteration #  8     ecut=    60.00 Ry     beta= 0.30
     Davidson diagonalization with overlap
     ethr =  3.38E-12,  avg # of iterations =  2.0

     negative rho (up, down):  4.459E-03 0.000E+00

     total cpu time spent up to now is     3903.2 secs

     total energy              =    -583.56909722 Ry
     estimated scf accuracy    <          3.1E-09 Ry

     iteration #  9     ecut=    60.00 Ry     beta= 0.30
     Davidson diagonalization with overlap
     ethr =  3.38E-12,  avg # of iterations =  4.0

     negative rho (up, down):  4.459E-03 0.000E+00

     total cpu time spent up to now is     3917.8 secs

     total energy              =    -583.56909722 Ry
     estimated scf accuracy    <          2.7E-10 Ry

     iteration # 10     ecut=    60.00 Ry     beta= 0.30
     Davidson diagonalization with overlap
     ethr =  4.64E-13,  avg # of iterations =  2.0

     negative rho (up, down):  4.459E-03 0.000E+00

     total cpu time spent up to now is     3928.4 secs

     total energy              =    -583.56909722 Ry
     estimated scf accuracy    <          1.5E-10 Ry

     iteration # 11     ecut=    60.00 Ry     beta= 0.30
     Davidson diagonalization with overlap
     ethr =  2.61E-13,  avg # of iterations =  5.0

     negative rho (up, down):  4.459E-03 0.000E+00

     total cpu time spent up to now is     3940.5 secs

     total energy              =    -583.56909722 Ry
     estimated scf accuracy    <          2.5E-10 Ry

     iteration # 12     ecut=    60.00 Ry     beta= 0.30
     Davidson diagonalization with overlap
     ethr =  2.61E-13,  avg # of iterations =  3.0

     negative rho (up, down):  4.459E-03 0.000E+00

     total cpu time spent up to now is     3954.8 secs

     End of self-consistent calculation

          k = 0.0000 0.0000 0.0000 ( 98475 PWs)   bands (ev):

  -109.2486 -69.6347 -69.6347 -69.6347 -28.9664 -28.9578 -28.9578 -28.9578
   -14.9630 -14.2050 -14.2050 -14.2050 -12.3657 -11.7926 -11.7926 -11.7485
   -11.7485 -11.7485 -11.5186 -11.5186 -11.5186 -11.3512 -11.3512 -11.3512
    -7.8264  -7.8264  -6.6861  -6.6861  -6.6861

     highest occupied level (ev):    -6.6861

!    total energy              =    -583.56909722 Ry
     estimated scf accuracy    <          8.7E-12 Ry

     The total energy is the sum of the following terms:
     one-electron contribution =   -2017.20341135 Ry
     hartree contribution      =    1009.46653938 Ry
     xc contribution           =     -82.56115367 Ry
     ewald contribution        =     569.58022413 Ry
     one-center paw contrib.   =     -62.85129571 Ry

     convergence has been achieved in  12 iterations

     negative rho (up, down):  4.459E-03 0.000E+00

     Forces acting on atoms (cartesian axes, Ry/au):

     atom    1 type  2   force =     0.00000000    0.00000000    0.00000000
     atom    2 type  1   force =    -0.00000400   -0.00000400   -0.00000400
     atom    3 type  3   force =    -0.00000143   -0.00000143   -0.00000143
     atom    4 type  1   force =    -0.00000400    0.00000400    0.00000400
     atom    5 type  3   force =    -0.00000143    0.00000143    0.00000143
     atom    6 type  1   force =     0.00000400   -0.00000400    0.00000400
     atom    7 type  3   force =     0.00000143   -0.00000143    0.00000143
     atom    8 type  1   force =     0.00000400    0.00000400   -0.00000400
     atom    9 type  3   force =     0.00000143    0.00000143   -0.00000143

     Total force =     0.000015     Total SCF correction =     0.000004
     SCF correction compared to forces is large: reduce conv_thr to get better values
     Energy error            =      6.9E-08 Ry
     Gradient error          =      4.0E-06 Ry/Bohr

     bfgs converged in  10 scf cycles and   8 bfgs steps
     (criteria: energy <  1.0E-05 Ry, force <  1.0E-04 Ry/Bohr)

     End of BFGS Geometry Optimization

     Final energy             =    -583.5690972193 Ry

     File /home/duets/qe_workdirs/ni_co4__mc_dist__+0.06/ni_co4__mc_dist__+0.06.bfgs deleted, as requested
Begin final coordinates

ATOMIC_POSITIONS (angstrom)
Ni               7.7464845600        7.7464845600        7.7464845600
C                8.7925633533        8.7925633533        8.7925633533
O                9.4567202065        9.4567202065        9.4567202065
C                8.7925633533        6.7004057767        6.7004057767
O                9.4567202065        6.0362489235        6.0362489235
C                6.7004057767        8.7925633533        6.7004057767
O                6.0362489235        9.4567202065        6.0362489235
C                6.7004057767        6.7004057767        8.7925633533
O                6.0362489235        6.0362489235        9.4567202065
End final coordinates



     Writing all to output data dir /home/duets/qe_workdirs/ni_co4__mc_dist__+0.06/ni_co4__mc_dist__+0.06.save/ :
     XML data file, charge density, pseudopotentials, collected wavefunctions

     init_run     :      5.22s CPU      8.14s WALL (       1 calls)
     electrons    :   2318.42s CPU   3833.12s WALL (      10 calls)
     update_pot   :      9.47s CPU     18.67s WALL (       9 calls)
     forces       :     35.17s CPU     67.00s WALL (      10 calls)

     Called by init_run:
     wfcinit      :      0.85s CPU      0.91s WALL (       1 calls)
     potinit      :      1.14s CPU      1.84s WALL (       1 calls)
     hinit0       :      0.97s CPU      1.22s WALL (       1 calls)

     Called by electrons:
     c_bands      :    563.34s CPU    697.26s WALL (     313 calls)
     sum_band     :    921.02s CPU   1507.33s WALL (     313 calls)
     v_of_rho     :    233.53s CPU    417.70s WALL (     320 calls)
     newd         :    488.29s CPU   1082.57s WALL (     320 calls)
     PAW_pot      :     16.13s CPU     16.12s WALL (     329 calls)
     mix_rho      :     72.76s CPU     97.52s WALL (     313 calls)

     Called by c_bands:
     init_us_2    :     11.99s CPU     14.31s WALL (     646 calls)
     regterg      :    548.55s CPU    682.17s WALL (     313 calls)

     Called by *egterg:
     rdiaghg      :      1.86s CPU      3.14s WALL (    1483 calls)
     h_psi        :    462.21s CPU    555.30s WALL (    1496 calls)
     s_psi        :     11.85s CPU     11.43s WALL (    1496 calls)
     g_psi        :      1.48s CPU      1.20s WALL (    1182 calls)

     Called by h_psi:
     h_psi:calbec :     17.70s CPU     25.50s WALL (    1496 calls)
     vloc_psi     :    428.31s CPU    510.31s WALL (    1496 calls)
     add_vuspsi   :     13.69s CPU     16.88s WALL (    1496 calls)

     General routines
     calbec       :     23.33s CPU     32.74s WALL (    1858 calls)
     fft          :    239.25s CPU    422.96s WALL (    3612 calls)
     ffts         :     13.62s CPU     17.11s WALL (     633 calls)
     fftw         :    317.28s CPU    408.58s WALL (   32069 calls)
     interpolate  :     31.71s CPU     45.05s WALL (     320 calls)

     Parallel routines

     PWSCF        :  39m44.61s CPU      1h 6m WALL


   This run was terminated on:   5:15:36  30Jun2026            

=------------------------------------------------------------------------------=
   JOB DONE.
=------------------------------------------------------------------------------=
