
     Program PWSCF v.7.4.1 starts on 29Jun2026 at  5:28:39 

     This program is part of the open-source Quantum ESPRESSO suite
     for quantum simulation of materials; please cite
         "P. Giannozzi et al., J. Phys.:Condens. Matter 21 395502 (2009);
         "P. Giannozzi et al., J. Phys.:Condens. Matter 29 465901 (2017);
         "P. Giannozzi et al., J. Chem. Phys. 152 154105 (2020);
          URL http://www.quantum-espresso.org", 
     in publications or presentations arising from this work. More details at
     http://www.quantum-espresso.org/quote

     Parallel version (MPI), running on     4 processors

     MPI processes distributed on     1 nodes
     15223 MiB available memory on the printing compute node when the environment starts

     Reading input from qe/inputs/relax/fe_co5_initial.in

     Current dimensions of program PWSCF are:
     Max number of different atomic species (ntypx) = 10
     Max number of k-points (npk) =  40000
     Max angular momentum in pseudopotentials (lmaxx) =  4
     file C.pbe-n-kjpaw_psl.1.0.0.UPF: wavefunction(s)  2S 2P renormalized
     file Fe.pbe-spn-kjpaw_psl.0.2.1.UPF: wavefunction(s)  3D renormalized
     file O.pbe-n-kjpaw_psl.0.1.UPF: wavefunction(s)  2P renormalized

     gamma-point specific algorithms are used
     Message from routine setup:
     using ibrav=0 with symmetry is DISCOURAGED, use correct ibrav instead

     R & G space division:  proc/nbgrp/npool/nimage =       4
     Subspace diagonalization in iterative solution of the eigenvalue problem:
     a serial algorithm will be used


     Parallelization info
     --------------------
     sticks:   dense  smooth     PW     G-vecs:    dense   smooth      PW
     Min       10917    5462   1363              1718182   607532   75841
     Max       10920    5464   1366              1718192   607537   75848
     Sum       43673   21853   5457              6872747  2430139  303379

     Using Slab Decomposition



     bravais-lattice index     =            0
     lattice parameter (alat)  =      33.8261  a.u.
     unit-cell volume          =   38703.9860 (a.u.)^3
     number of atoms/cell      =           11
     number of atomic types    =            3
     number of electrons       =        66.00
     number of Kohn-Sham states=           33
     kinetic-energy cutoff     =      60.0000  Ry
     charge density cutoff     =     480.0000  Ry
     scf convergence threshold =      1.0E-08
     mixing beta               =       0.3000
     number of iterations used =            8  plain     mixing
     energy convergence thresh.=      1.0E-05
     force convergence thresh. =      1.0E-04
     Exchange-correlation= SLA  PW   PBX  PBC
                           (   1   4   3   4   0   0   0)
     nstep                     =           50

     Assuming isolated system, Martyna-Tuckerman method


     celldm(1)=  33.826098  celldm(2)=   0.000000  celldm(3)=   0.000000
     celldm(4)=   0.000000  celldm(5)=   0.000000  celldm(6)=   0.000000

     crystal axes: (cart. coord. in units of alat)
               a(1) = (   1.000000   0.000000   0.000000 )  
               a(2) = (   0.000000   1.000000   0.000000 )  
               a(3) = (   0.000000   0.000000   1.000000 )  

     reciprocal axes: (cart. coord. in units 2 pi/alat)
               b(1) = (  1.000000  0.000000  0.000000 )  
               b(2) = (  0.000000  1.000000  0.000000 )  
               b(3) = (  0.000000  0.000000  1.000000 )  


     PseudoPot. # 1 for C  read from file:
     /mnt/d/Rifat_kh/SSSP_1.3.0_PBE_efficiency/C.pbe-n-kjpaw_psl.1.0.0.UPF
     MD5 check sum: 5d2aebdfa2cae82b50a7e79e9516da0f
     Pseudo is Projector augmented-wave + core cor, Zval =  4.0
     Generated using "atomic" code by A. Dal Corso  v.5.1
     Shape of augmentation charge: PSQ
     Using radial grid of 1073 points,  4 beta functions with: 
                l(1) =   0
                l(2) =   0
                l(3) =   1
                l(4) =   1
     Q(r) pseudized with 0 coefficients 


     PseudoPot. # 2 for Fe read from file:
     /mnt/d/Rifat_kh/SSSP_1.3.0_PBE_efficiency/Fe.pbe-spn-kjpaw_psl.0.2.1.UPF
     MD5 check sum: e86618425769142926afa95317d90200
     Pseudo is Projector augmented-wave + core cor, Zval = 16.0
     Generated using "atomic" code by A. Dal Corso  v.5.0.99 svn rev. 10869
     Shape of augmentation charge: PSQ
     Using radial grid of 1191 points,  6 beta functions with: 
                l(1) =   0
                l(2) =   0
                l(3) =   1
                l(4) =   1
                l(5) =   2
                l(6) =   2
     Q(r) pseudized with 0 coefficients 


     PseudoPot. # 3 for O  read from file:
     /mnt/d/Rifat_kh/SSSP_1.3.0_PBE_efficiency/O.pbe-n-kjpaw_psl.0.1.UPF
     MD5 check sum: 0234752ac141de4415c5fc33072bef88
     Pseudo is Projector augmented-wave + core cor, Zval =  6.0
     Generated using "atomic" code by A. Dal Corso  v.5.0.99 svn rev. 10869
     Shape of augmentation charge: BESSEL
     Using radial grid of 1095 points,  4 beta functions with: 
                l(1) =   0
                l(2) =   0
                l(3) =   1
                l(4) =   1
     Q(r) pseudized with 0 coefficients 


     atomic species   valence    mass     pseudopotential
     C                 4.00    12.01100     C ( 1.00)
     Fe               16.00    55.84500     Fe( 1.00)
     O                 6.00    15.99900     O ( 1.00)

      4 Sym. Ops. (no inversion) found



   Cartesian axes

     site n.     atom                  positions (alat units)
         1        Fe     tau(   1) = (   0.5000000   0.5000000   0.5000000  )
         2        C      tau(   2) = (   0.5000000   0.5000000   0.6009497  )
         3        O      tau(   3) = (   0.5000000   0.5000000   0.6648045  )
         4        C      tau(   4) = (   0.5000000   0.5000000   0.3990503  )
         5        O      tau(   5) = (   0.5000000   0.5000000   0.3351955  )
         6        C      tau(   6) = (   0.6020670   0.5000000   0.5000000  )
         7        O      tau(   7) = (   0.6664804   0.5000000   0.5000000  )
         8        C      tau(   8) = (   0.4489665   0.5883926   0.5000000  )
         9        O      tau(   9) = (   0.4167598   0.6441763   0.5000000  )
        10        C      tau(  10) = (   0.4489665   0.4116074   0.5000000  )
        11        O      tau(  11) = (   0.4167598   0.3558237   0.5000000  )

     number of k points=     1
                       cart. coord. in units 2pi/alat
        k(    1) = (   0.0000000   0.0000000   0.0000000), wk =   2.0000000

     Dense  grid:  3436374 G-vectors     FFT dimensions: ( 240, 240, 240)

     Smooth grid:  1215070 G-vectors     FFT dimensions: ( 180, 180, 180)

     Estimated max dynamical RAM per process >       3.26 GB

     Estimated total dynamical RAM >      13.04 GB

     Check: negative core charge=   -0.000002

     Initial potential from superposition of free atoms

     starting charge      65.9993, renormalised to      66.0000

     negative rho (up, down):  1.175E-02 0.000E+00
     Starting wfcs are   53 randomized atomic wfcs
     Checking if some PAW data can be deallocated... 

     total cpu time spent up to now is       16.3 secs

     Self-consistent Calculation

     iteration #  1     ecut=    60.00 Ry     beta= 0.30
     Davidson diagonalization with overlap
     ethr =  1.00E-02,  avg # of iterations =  2.0

     negative rho (up, down):  1.176E-02 0.000E+00

     total cpu time spent up to now is       36.0 secs

     total energy              =    -629.37572704 Ry
     estimated scf accuracy    <       1.02076492 Ry

     iteration #  2     ecut=    60.00 Ry     beta= 0.30
     Davidson diagonalization with overlap
     ethr =  1.55E-03,  avg # of iterations =  5.0

     negative rho (up, down):  1.683E-02 0.000E+00

     total cpu time spent up to now is       59.7 secs

     total energy              =    -629.44830593 Ry
     estimated scf accuracy    <       2.13735702 Ry

     iteration #  3     ecut=    60.00 Ry     beta= 0.30
     Davidson diagonalization with overlap
     ethr =  1.55E-03,  avg # of iterations =  5.0

     negative rho (up, down):  1.307E-02 0.000E+00

     total cpu time spent up to now is       81.9 secs

     total energy              =    -629.60218599 Ry
     estimated scf accuracy    <       0.32974491 Ry

     iteration #  4     ecut=    60.00 Ry     beta= 0.30
     Davidson diagonalization with overlap
     ethr =  5.00E-04,  avg # of iterations =  5.0

     negative rho (up, down):  2.332E-02 0.000E+00

     total cpu time spent up to now is      102.5 secs

     total energy              =    -629.60874050 Ry
     estimated scf accuracy    <       0.15627219 Ry

     iteration #  5     ecut=    60.00 Ry     beta= 0.30
     Davidson diagonalization with overlap
     ethr =  2.37E-04,  avg # of iterations =  5.0

     negative rho (up, down):  2.761E-02 0.000E+00

     total cpu time spent up to now is      126.0 secs

     total energy              =    -629.65687995 Ry
     estimated scf accuracy    <       0.20093525 Ry

     iteration #  6     ecut=    60.00 Ry     beta= 0.30
     Davidson diagonalization with overlap
     ethr =  2.37E-04,  avg # of iterations =  5.0

     negative rho (up, down):  2.512E-02 0.000E+00

     total cpu time spent up to now is      145.7 secs

     total energy              =    -629.66549750 Ry
     estimated scf accuracy    <       0.01441039 Ry

     iteration #  7     ecut=    60.00 Ry     beta= 0.30
     Davidson diagonalization with overlap
     ethr =  2.18E-05,  avg # of iterations =  6.0

     negative rho (up, down):  2.039E-02 0.000E+00

     total cpu time spent up to now is      169.6 secs

     total energy              =    -629.67915665 Ry
     estimated scf accuracy    <       0.07606938 Ry

     iteration #  8     ecut=    60.00 Ry     beta= 0.30
     Davidson diagonalization with overlap
     ethr =  2.18E-05,  avg # of iterations =  1.0

     negative rho (up, down):  1.678E-02 0.000E+00

     total cpu time spent up to now is      190.8 secs

     total energy              =    -629.66962777 Ry
     estimated scf accuracy    <       0.07060370 Ry

     iteration #  9     ecut=    60.00 Ry     beta= 0.30
     Davidson diagonalization with overlap
     ethr =  2.18E-05,  avg # of iterations =  5.0

     negative rho (up, down):  1.611E-02 0.000E+00

     total cpu time spent up to now is      210.9 secs

     total energy              =    -629.67447933 Ry
     estimated scf accuracy    <       0.00065137 Ry

     iteration # 10     ecut=    60.00 Ry     beta= 0.30
     Davidson diagonalization with overlap
     ethr =  9.87E-07,  avg # of iterations =  5.0

     negative rho (up, down):  1.560E-02 0.000E+00

     total cpu time spent up to now is      234.7 secs

     total energy              =    -629.67494814 Ry
     estimated scf accuracy    <       0.00043325 Ry

     iteration # 11     ecut=    60.00 Ry     beta= 0.30
     Davidson diagonalization with overlap
     ethr =  6.56E-07,  avg # of iterations =  2.0

     negative rho (up, down):  1.509E-02 0.000E+00

     total cpu time spent up to now is      256.3 secs

     total energy              =    -629.67519541 Ry
     estimated scf accuracy    <       0.00064840 Ry

     iteration # 12     ecut=    60.00 Ry     beta= 0.30
     Davidson diagonalization with overlap
     ethr =  6.56E-07,  avg # of iterations =  6.0

     negative rho (up, down):  1.523E-02 0.000E+00

     total cpu time spent up to now is      278.8 secs

     total energy              =    -629.67512394 Ry
     estimated scf accuracy    <       0.00369839 Ry

     iteration # 13     ecut=    60.00 Ry     beta= 0.30
     Davidson diagonalization with overlap
     ethr =  6.56E-07,  avg # of iterations =  4.0

     negative rho (up, down):  1.518E-02 0.000E+00

     total cpu time spent up to now is      301.1 secs

     total energy              =    -629.67564144 Ry
     estimated scf accuracy    <       0.00243130 Ry

     iteration # 14     ecut=    60.00 Ry     beta= 0.30
     Davidson diagonalization with overlap
     ethr =  6.56E-07,  avg # of iterations =  5.0

     negative rho (up, down):  1.514E-02 0.000E+00

     total cpu time spent up to now is      323.4 secs

     total energy              =    -629.67581906 Ry
     estimated scf accuracy    <       0.00455474 Ry

     iteration # 15     ecut=    60.00 Ry     beta= 0.30
     Davidson diagonalization with overlap
     ethr =  6.56E-07,  avg # of iterations =  4.0

     negative rho (up, down):  1.543E-02 0.000E+00

     total cpu time spent up to now is      343.6 secs

     total energy              =    -629.67629282 Ry
     estimated scf accuracy    <       0.00526872 Ry

     iteration # 16     ecut=    60.00 Ry     beta= 0.30
     Davidson diagonalization with overlap
     ethr =  6.56E-07,  avg # of iterations =  3.0

     negative rho (up, down):  1.541E-02 0.000E+00

     total cpu time spent up to now is      366.0 secs

     total energy              =    -629.67634928 Ry
     estimated scf accuracy    <       0.00750840 Ry

     iteration # 17     ecut=    60.00 Ry     beta= 0.30
     Davidson diagonalization with overlap
     ethr =  6.56E-07,  avg # of iterations =  1.0

     negative rho (up, down):  1.533E-02 0.000E+00

     total cpu time spent up to now is      385.0 secs

     total energy              =    -629.67617849 Ry
     estimated scf accuracy    <       0.00759462 Ry

     iteration # 18     ecut=    60.00 Ry     beta= 0.30
     Davidson diagonalization with overlap
     ethr =  6.56E-07,  avg # of iterations =  1.0

     negative rho (up, down):  1.512E-02 0.000E+00

     total cpu time spent up to now is      406.4 secs

     total energy              =    -629.67300328 Ry
     estimated scf accuracy    <       0.00730241 Ry

     iteration # 19     ecut=    60.00 Ry     beta= 0.30
     Davidson diagonalization with overlap
     ethr =  6.56E-07,  avg # of iterations =  7.0

     negative rho (up, down):  1.509E-02 0.000E+00

     total cpu time spent up to now is      432.5 secs

     total energy              =    -629.67448235 Ry
     estimated scf accuracy    <       0.00341904 Ry

     iteration # 20     ecut=    60.00 Ry     beta= 0.30
     Davidson diagonalization with overlap
     ethr =  6.56E-07,  avg # of iterations =  5.0

     negative rho (up, down):  1.507E-02 0.000E+00

     total cpu time spent up to now is      454.1 secs

     total energy              =    -629.67479147 Ry
     estimated scf accuracy    <       0.00050228 Ry

     iteration # 21     ecut=    60.00 Ry     beta= 0.30
     Davidson diagonalization with overlap
     ethr =  6.56E-07,  avg # of iterations =  5.0

     negative rho (up, down):  1.509E-02 0.000E+00

     total cpu time spent up to now is      476.2 secs

     total energy              =    -629.67486829 Ry
     estimated scf accuracy    <       0.00003138 Ry

     iteration # 22     ecut=    60.00 Ry     beta= 0.30
     Davidson diagonalization with overlap
     ethr =  4.75E-08,  avg # of iterations =  5.0

     negative rho (up, down):  1.507E-02 0.000E+00

     total cpu time spent up to now is      500.7 secs

     total energy              =    -629.67489978 Ry
     estimated scf accuracy    <       0.00013463 Ry

     iteration # 23     ecut=    60.00 Ry     beta= 0.30
     Davidson diagonalization with overlap
     ethr =  4.75E-08,  avg # of iterations =  3.0

     negative rho (up, down):  1.505E-02 0.000E+00

     total cpu time spent up to now is      520.7 secs

     total energy              =    -629.67485165 Ry
     estimated scf accuracy    <       0.00018423 Ry

     iteration # 24     ecut=    60.00 Ry     beta= 0.30
     Davidson diagonalization with overlap
     ethr =  4.75E-08,  avg # of iterations =  6.0

     negative rho (up, down):  1.505E-02 0.000E+00

     total cpu time spent up to now is      545.4 secs

     total energy              =    -629.67486189 Ry
     estimated scf accuracy    <       0.00013690 Ry

     iteration # 25     ecut=    60.00 Ry     beta= 0.30
     Davidson diagonalization with overlap
     ethr =  4.75E-08,  avg # of iterations =  5.0

     negative rho (up, down):  1.505E-02 0.000E+00

     total cpu time spent up to now is      568.3 secs

     total energy              =    -629.67486163 Ry
     estimated scf accuracy    <       0.00002114 Ry

     iteration # 26     ecut=    60.00 Ry     beta= 0.30
     Davidson diagonalization with overlap
     ethr =  3.20E-08,  avg # of iterations =  5.0

     negative rho (up, down):  1.505E-02 0.000E+00

     total cpu time spent up to now is      589.3 secs

     total energy              =    -629.67486605 Ry
     estimated scf accuracy    <       0.00001306 Ry

     iteration # 27     ecut=    60.00 Ry     beta= 0.30
     Davidson diagonalization with overlap
     ethr =  1.98E-08,  avg # of iterations =  4.0

     negative rho (up, down):  1.505E-02 0.000E+00

     total cpu time spent up to now is      611.6 secs

     total energy              =    -629.67486665 Ry
     estimated scf accuracy    <       0.00000223 Ry

     iteration # 28     ecut=    60.00 Ry     beta= 0.30
     Davidson diagonalization with overlap
     ethr =  3.38E-09,  avg # of iterations =  5.0

     negative rho (up, down):  1.506E-02 0.000E+00

     total cpu time spent up to now is      635.2 secs

     total energy              =    -629.67486761 Ry
     estimated scf accuracy    <       0.00000060 Ry

     iteration # 29     ecut=    60.00 Ry     beta= 0.30
     Davidson diagonalization with overlap
     ethr =  9.08E-10,  avg # of iterations =  4.0

     negative rho (up, down):  1.506E-02 0.000E+00

     total cpu time spent up to now is      655.0 secs

     total energy              =    -629.67486760 Ry
     estimated scf accuracy    <       0.00000021 Ry

     iteration # 30     ecut=    60.00 Ry     beta= 0.30
     Davidson diagonalization with overlap
     ethr =  3.14E-10,  avg # of iterations =  5.0

     negative rho (up, down):  1.506E-02 0.000E+00

     total cpu time spent up to now is      679.7 secs

     total energy              =    -629.67486766 Ry
     estimated scf accuracy    <       0.00000018 Ry

     iteration # 31     ecut=    60.00 Ry     beta= 0.30
     Davidson diagonalization with overlap
     ethr =  2.69E-10,  avg # of iterations =  4.0

     negative rho (up, down):  1.506E-02 0.000E+00

     total cpu time spent up to now is      701.8 secs

     End of self-consistent calculation

          k = 0.0000 0.0000 0.0000 (151690 PWs)   bands (ev):

   -92.6317 -59.2199 -58.4657 -58.4657 -29.2916 -29.2886 -28.8363 -28.8334
   -28.8333 -15.6707 -14.4289 -14.2044 -14.2044 -14.0826 -12.6840 -12.2791
   -12.2791 -12.0930 -12.0930 -12.0023 -11.6105 -11.6105 -11.5203 -11.4211
   -11.4108 -11.4108 -11.0014 -11.0014 -10.5646  -7.5486  -7.5486  -6.2363
    -6.2362

     highest occupied level (ev):    -6.2362

!    total energy              =    -629.67486770 Ry
     total all-electron energy =     -3679.026354 Ry
     estimated scf accuracy    <          6.7E-09 Ry

     The total energy is the sum of the following terms:
     one-electron contribution =   -2259.19456043 Ry
     hartree contribution      =    1132.08259275 Ry
     xc contribution           =     -93.73066890 Ry
     ewald contribution        =     745.88647950 Ry
     one-center paw contrib.   =    -154.71871062 Ry

     convergence has been achieved in  31 iterations

     negative rho (up, down):  1.506E-02 0.000E+00

     Forces acting on atoms (cartesian axes, Ry/au):

     atom    1 type  2   force =     0.00000211    0.00000000    0.00000000
     atom    2 type  1   force =    -0.00001281    0.00000000   -0.04388528
     atom    3 type  3   force =    -0.00001395    0.00000000    0.04208498
     atom    4 type  1   force =    -0.00001281    0.00000000    0.04388528
     atom    5 type  3   force =    -0.00001395    0.00000000   -0.04208498
     atom    6 type  1   force =    -0.02895375    0.00000000    0.00000000
     atom    7 type  3   force =     0.00840829    0.00000000    0.00000000
     atom    8 type  1   force =     0.01452043   -0.02502211    0.00000000
     atom    9 type  3   force =    -0.00422200    0.00728934    0.00000000
     atom   10 type  1   force =     0.01452043    0.02502211    0.00000000
     atom   11 type  3   force =    -0.00422200   -0.00728934    0.00000000

     Total force =     0.100593     Total SCF correction =     0.000160

     BFGS Geometry Optimization
     Energy error            =      1.0E-02 Ry
     Gradient error          =      4.4E-02 Ry/Bohr

     number of scf cycles    =   1
     number of bfgs steps    =   0

     energy             new  =    -629.6748676990 Ry

     new trust radius        =       0.0438852792 bohr
     new conv_thr            =       0.0000000100 Ry


ATOMIC_POSITIONS (angstrom)
Fe               8.9500011187        8.9500000000        8.9500000000
C                8.9499932197        8.9500000000       10.7337769113
O                8.9499926197        8.9500000000       11.9222704134
C                8.9499932197        8.9500000000        7.1662230887
O                8.9499926197        8.9500000000        5.9777295866
C               10.7616783352        8.9500000000        8.9500000000
O               11.9344494762        8.9500000000        8.9500000000
C                8.0441838799       10.5189872814        8.9500000000
O                7.4577658156       11.5346130500        8.9500000000
C                8.0441838799        7.3810127186        8.9500000000
O                7.4577658156        6.3653869500        8.9500000000



     Writing config-only to output data dir /mnt/d/Research/Dr.Kulik_MIT/qe/workdirs/fe_co5_initial/fe_co5_initial.save/ :
     XML data file
     NEW-OLD atomic charge density approx. for the potential

     Check: negative core charge=   -0.000002

     negative rho (up, down):  1.505E-02 0.000E+00

     total cpu time spent up to now is      722.0 secs

     Self-consistent Calculation

     iteration #  1     ecut=    60.00 Ry     beta= 0.30
     Davidson diagonalization with overlap
     ethr =  1.00E-06,  avg # of iterations = 13.0

     negative rho (up, down):  1.494E-02 0.000E+00

     total cpu time spent up to now is      756.5 secs

     total energy              =    -629.66338620 Ry
     estimated scf accuracy    <       0.00950018 Ry

     iteration #  2     ecut=    60.00 Ry     beta= 0.30
     Davidson diagonalization with overlap
     ethr =  1.44E-05,  avg # of iterations =  5.0

     negative rho (up, down):  1.493E-02 0.000E+00

     total cpu time spent up to now is      779.3 secs

     total energy              =    -629.66260320 Ry
     estimated scf accuracy    <       0.01574525 Ry

     iteration #  3     ecut=    60.00 Ry     beta= 0.30
     Davidson diagonalization with overlap
     ethr =  1.44E-05,  avg # of iterations =  5.0

     negative rho (up, down):  1.486E-02 0.000E+00

     total cpu time spent up to now is      799.0 secs

     total energy              =    -629.66356193 Ry
     estimated scf accuracy    <       0.00355441 Ry

     iteration #  4     ecut=    60.00 Ry     beta= 0.30
     Davidson diagonalization with overlap
     ethr =  5.39E-06,  avg # of iterations =  2.0

     negative rho (up, down):  1.485E-02 0.000E+00

     total cpu time spent up to now is      820.5 secs

     total energy              =    -629.66372322 Ry
     estimated scf accuracy    <       0.00081825 Ry

     iteration #  5     ecut=    60.00 Ry     beta= 0.30
     Davidson diagonalization with overlap
     ethr =  1.24E-06,  avg # of iterations =  5.0

     negative rho (up, down):  1.487E-02 0.000E+00

     total cpu time spent up to now is      843.5 secs

     total energy              =    -629.66382016 Ry
     estimated scf accuracy    <       0.00095965 Ry

     iteration #  6     ecut=    60.00 Ry     beta= 0.30
     Davidson diagonalization with overlap
     ethr =  1.24E-06,  avg # of iterations =  5.0

     negative rho (up, down):  1.484E-02 0.000E+00

     total cpu time spent up to now is      863.5 secs

     total energy              =    -629.66395638 Ry
     estimated scf accuracy    <       0.00036286 Ry

     iteration #  7     ecut=    60.00 Ry     beta= 0.30
     Davidson diagonalization with overlap
     ethr =  5.50E-07,  avg # of iterations =  3.0

     negative rho (up, down):  1.481E-02 0.000E+00

     total cpu time spent up to now is      885.0 secs

     total energy              =    -629.66397315 Ry
     estimated scf accuracy    <       0.00006414 Ry

     iteration #  8     ecut=    60.00 Ry     beta= 0.30
     Davidson diagonalization with overlap
     ethr =  9.72E-08,  avg # of iterations =  5.0

     negative rho (up, down):  1.480E-02 0.000E+00

     total cpu time spent up to now is      907.6 secs

     total energy              =    -629.66399171 Ry
     estimated scf accuracy    <       0.00004960 Ry

     iteration #  9     ecut=    60.00 Ry     beta= 0.30
     Davidson diagonalization with overlap
     ethr =  7.52E-08,  avg # of iterations =  1.0

     negative rho (up, down):  1.480E-02 0.000E+00

     total cpu time spent up to now is      927.0 secs

     total energy              =    -629.66399047 Ry
     estimated scf accuracy    <       0.00002928 Ry

     iteration # 10     ecut=    60.00 Ry     beta= 0.30
     Davidson diagonalization with overlap
     ethr =  4.44E-08,  avg # of iterations =  4.0

     negative rho (up, down):  1.480E-02 0.000E+00

     total cpu time spent up to now is      948.9 secs

     total energy              =    -629.66399404 Ry
     estimated scf accuracy    <       0.00000015 Ry

     iteration # 11     ecut=    60.00 Ry     beta= 0.30
     Davidson diagonalization with overlap
     ethr =  2.24E-10,  avg # of iterations = 13.0

     negative rho (up, down):  1.479E-02 0.000E+00

     total cpu time spent up to now is      983.9 secs

     total energy              =    -629.66399553 Ry
     estimated scf accuracy    <       0.00000183 Ry

     iteration # 12     ecut=    60.00 Ry     beta= 0.30
     Davidson diagonalization with overlap
     ethr =  2.24E-10,  avg # of iterations =  2.0

     negative rho (up, down):  1.479E-02 0.000E+00

     total cpu time spent up to now is     1003.8 secs

     total energy              =    -629.66399533 Ry
     estimated scf accuracy    <       0.00000202 Ry

     iteration # 13     ecut=    60.00 Ry     beta= 0.30
     Davidson diagonalization with overlap
     ethr =  2.24E-10,  avg # of iterations =  5.0

     negative rho (up, down):  1.479E-02 0.000E+00

     total cpu time spent up to now is     1026.8 secs

     total energy              =    -629.66399534 Ry
     estimated scf accuracy    <       0.00000069 Ry

     iteration # 14     ecut=    60.00 Ry     beta= 0.30
     Davidson diagonalization with overlap
     ethr =  2.24E-10,  avg # of iterations =  2.0

     negative rho (up, down):  1.479E-02 0.000E+00

     total cpu time spent up to now is     1048.0 secs

     total energy              =    -629.66399539 Ry
     estimated scf accuracy    <       0.00000047 Ry

     iteration # 15     ecut=    60.00 Ry     beta= 0.30
     Davidson diagonalization with overlap
     ethr =  2.24E-10,  avg # of iterations =  5.0

     negative rho (up, down):  1.479E-02 0.000E+00

     total cpu time spent up to now is     1068.3 secs

     total energy              =    -629.66399543 Ry
     estimated scf accuracy    <       0.00000113 Ry

     iteration # 16     ecut=    60.00 Ry     beta= 0.30
     Davidson diagonalization with overlap
     ethr =  2.24E-10,  avg # of iterations =  1.0

     negative rho (up, down):  1.479E-02 0.000E+00

     total cpu time spent up to now is     1089.4 secs

     total energy              =    -629.66399544 Ry
     estimated scf accuracy    <       0.00000119 Ry

     iteration # 17     ecut=    60.00 Ry     beta= 0.30
     Davidson diagonalization with overlap
     ethr =  2.24E-10,  avg # of iterations =  1.0

     negative rho (up, down):  1.479E-02 0.000E+00

     total cpu time spent up to now is     1107.9 secs

     total energy              =    -629.66399529 Ry
     estimated scf accuracy    <       0.00000127 Ry

     iteration # 18     ecut=    60.00 Ry     beta= 0.30
     Davidson diagonalization with overlap
     ethr =  2.24E-10,  avg # of iterations =  5.0

     negative rho (up, down):  1.479E-02 0.000E+00

     total cpu time spent up to now is     1130.3 secs

     total energy              =    -629.66399532 Ry
     estimated scf accuracy    <       0.00000011 Ry

     iteration # 19     ecut=    60.00 Ry     beta= 0.30
     Davidson diagonalization with overlap
     ethr =  1.72E-10,  avg # of iterations =  2.0

     negative rho (up, down):  1.479E-02 0.000E+00

     total cpu time spent up to now is     1151.9 secs

     total energy              =    -629.66399532 Ry
     estimated scf accuracy    <       0.00000003 Ry

     iteration # 20     ecut=    60.00 Ry     beta= 0.30
     Davidson diagonalization with overlap
     ethr =  3.95E-11,  avg # of iterations =  5.0

     negative rho (up, down):  1.479E-02 0.000E+00

     total cpu time spent up to now is     1172.6 secs

     total energy              =    -629.66399533 Ry
     estimated scf accuracy    <       0.00000004 Ry

     iteration # 21     ecut=    60.00 Ry     beta= 0.30
     Davidson diagonalization with overlap
     ethr =  3.95E-11,  avg # of iterations =  6.0

     negative rho (up, down):  1.479E-02 0.000E+00

     total cpu time spent up to now is     1195.4 secs

     total energy              =    -629.66399533 Ry
     estimated scf accuracy    <       0.00000004 Ry

     iteration # 22     ecut=    60.00 Ry     beta= 0.30
     Davidson diagonalization with overlap
     ethr =  3.95E-11,  avg # of iterations =  2.0

     negative rho (up, down):  1.479E-02 0.000E+00

     total cpu time spent up to now is     1216.9 secs

     total energy              =    -629.66399533 Ry
     estimated scf accuracy    <       0.00000003 Ry

     iteration # 23     ecut=    60.00 Ry     beta= 0.30
     Davidson diagonalization with overlap
     ethr =  3.95E-11,  avg # of iterations =  5.0

     negative rho (up, down):  1.479E-02 0.000E+00

     total cpu time spent up to now is     1236.2 secs

     End of self-consistent calculation

          k = 0.0000 0.0000 0.0000 (151690 PWs)   bands (ev):

   -92.9815 -59.5668 -58.8254 -58.8254 -28.6670 -28.6530 -28.6529 -28.5981
   -28.5914 -16.0054 -14.5535 -14.3877 -14.3877 -14.2182 -12.6647 -12.0973
   -12.0972 -11.9567 -11.8877 -11.8877 -11.7563 -11.5985 -11.5985 -11.3564
   -11.1975 -11.1975 -10.9742 -10.9742 -10.5508  -7.8767  -7.8767  -6.5479
    -6.5479

     highest occupied level (ev):    -6.5479

!    total energy              =    -629.66399533 Ry
     total all-electron energy =     -3679.015482 Ry
     estimated scf accuracy    <          4.5E-09 Ry

     The total energy is the sum of the following terms:
     one-electron contribution =   -2256.79600437 Ry
     hartree contribution      =    1130.71238000 Ry
     xc contribution           =     -93.50301061 Ry
     ewald contribution        =     744.64812219 Ry
     one-center paw contrib.   =    -154.72548254 Ry

     convergence has been achieved in  23 iterations

     negative rho (up, down):  1.479E-02 0.000E+00

     Forces acting on atoms (cartesian axes, Ry/au):

     atom    1 type  2   force =    -0.00000077    0.00000000    0.00000000
     atom    2 type  1   force =    -0.00002040    0.00000000    0.14137463
     atom    3 type  3   force =    -0.00001999    0.00000000   -0.12729747
     atom    4 type  1   force =    -0.00002040    0.00000000   -0.14137463
     atom    5 type  3   force =    -0.00001999    0.00000000    0.12729747
     atom    6 type  1   force =     0.06023517    0.00000000    0.00000000
     atom    7 type  3   force =    -0.07056908    0.00000000    0.00000000
     atom    8 type  1   force =    -0.03005147    0.05213886    0.00000000
     atom    9 type  3   force =     0.03525919   -0.06109140    0.00000000
     atom   10 type  1   force =    -0.03005147   -0.05213886    0.00000000
     atom   11 type  3   force =     0.03525919    0.06109140    0.00000000

     Total force =     0.313345     Total SCF correction =     0.000102
     Energy error            =      1.1E-02 Ry
     Gradient error          =      1.4E-01 Ry/Bohr

     number of scf cycles    =   2
     number of bfgs steps    =   1

     energy             old  =    -629.6748676990 Ry
     energy             new  =    -629.6639953287 Ry

     CASE: energy            _new > energy            _old

     new trust radius        =       0.0105775443 bohr
     new conv_thr            =       0.0000000100 Ry


ATOMIC_POSITIONS (angstrom)
Fe               8.9500002696        8.9500000000        8.9500000000
C                8.9499983658        8.9500000000       10.7514026048
O                8.9499982211        8.9500000000       11.9053677745
C                8.9499983658        8.9500000000        7.1485973952
O                8.9499982211        8.9500000000        5.9946322255
C               10.7733070626        8.9500000000        8.9500000000
O               11.9310724446        8.9500000000        8.9500000000
C                8.0383520238       10.5290369383        8.9500000000
O                7.4594615009       11.5316854261        8.9500000000
C                8.0383520238        7.3709630617        8.9500000000
O                7.4594615009        6.3683145739        8.9500000000



     Writing config-only to output data dir /mnt/d/Research/Dr.Kulik_MIT/qe/workdirs/fe_co5_initial/fe_co5_initial.save/ :
     XML data file
     NEW-OLD atomic charge density approx. for the potential

     Check: negative core charge=   -0.000002

     negative rho (up, down):  1.476E-02 0.000E+00

     total cpu time spent up to now is     1259.3 secs

     Self-consistent Calculation

     iteration #  1     ecut=    60.00 Ry     beta= 0.30
     Davidson diagonalization with overlap
     ethr =  1.00E-06,  avg # of iterations = 13.0

     negative rho (up, down):  1.484E-02 0.000E+00

     total cpu time spent up to now is     1292.6 secs

     total energy              =    -629.67577272 Ry
     estimated scf accuracy    <       0.00504328 Ry

     iteration #  2     ecut=    60.00 Ry     beta= 0.30
     Davidson diagonalization with overlap
     ethr =  7.64E-06,  avg # of iterations =  5.0

     negative rho (up, down):  1.489E-02 0.000E+00

     total cpu time spent up to now is     1313.1 secs

     total energy              =    -629.67528242 Ry
     estimated scf accuracy    <       0.00782309 Ry

     iteration #  3     ecut=    60.00 Ry     beta= 0.30
     Davidson diagonalization with overlap
     ethr =  7.64E-06,  avg # of iterations =  5.0

     negative rho (up, down):  1.497E-02 0.000E+00

     total cpu time spent up to now is     1334.8 secs

     total energy              =    -629.67569130 Ry
     estimated scf accuracy    <       0.00212167 Ry

     iteration #  4     ecut=    60.00 Ry     beta= 0.30
     Davidson diagonalization with overlap
     ethr =  3.21E-06,  avg # of iterations =  2.0

     negative rho (up, down):  1.498E-02 0.000E+00

     total cpu time spent up to now is     1356.8 secs

     total energy              =    -629.67585982 Ry
     estimated scf accuracy    <       0.00051081 Ry

     iteration #  5     ecut=    60.00 Ry     beta= 0.30
     Davidson diagonalization with overlap
     ethr =  7.74E-07,  avg # of iterations =  5.0

     negative rho (up, down):  1.500E-02 0.000E+00

     total cpu time spent up to now is     1377.0 secs

     total energy              =    -629.67592627 Ry
     estimated scf accuracy    <       0.00048410 Ry

     iteration #  6     ecut=    60.00 Ry     beta= 0.30
     Davidson diagonalization with overlap
     ethr =  7.33E-07,  avg # of iterations =  5.0

     negative rho (up, down):  1.501E-02 0.000E+00

     total cpu time spent up to now is     1399.0 secs

     total energy              =    -629.67599556 Ry
     estimated scf accuracy    <       0.00008144 Ry

     iteration #  7     ecut=    60.00 Ry     beta= 0.30
     Davidson diagonalization with overlap
     ethr =  1.23E-07,  avg # of iterations =  2.0

     negative rho (up, down):  1.499E-02 0.000E+00

     total cpu time spent up to now is     1417.9 secs

     total energy              =    -629.67599664 Ry
     estimated scf accuracy    <       0.00003541 Ry

     iteration #  8     ecut=    60.00 Ry     beta= 0.30
     Davidson diagonalization with overlap
     ethr =  5.36E-08,  avg # of iterations =  5.0

     negative rho (up, down):  1.499E-02 0.000E+00

     total cpu time spent up to now is     1440.3 secs

     total energy              =    -629.67600393 Ry
     estimated scf accuracy    <       0.00000749 Ry

     iteration #  9     ecut=    60.00 Ry     beta= 0.30
     Davidson diagonalization with overlap
     ethr =  1.13E-08,  avg # of iterations =  5.0

     negative rho (up, down):  1.499E-02 0.000E+00

     total cpu time spent up to now is     1464.4 secs

     total energy              =    -629.67600708 Ry
     estimated scf accuracy    <       0.00000363 Ry

     iteration # 10     ecut=    60.00 Ry     beta= 0.30
     Davidson diagonalization with overlap
     ethr =  5.51E-09,  avg # of iterations =  4.0

     negative rho (up, down):  1.499E-02 0.000E+00

     total cpu time spent up to now is     1484.3 secs

     total energy              =    -629.67600704 Ry
     estimated scf accuracy    <       0.00000476 Ry

     iteration # 11     ecut=    60.00 Ry     beta= 0.30
     Davidson diagonalization with overlap
     ethr =  5.51E-09,  avg # of iterations =  2.0

     negative rho (up, down):  1.499E-02 0.000E+00

     total cpu time spent up to now is     1506.0 secs

     total energy              =    -629.67600633 Ry
     estimated scf accuracy    <       0.00000291 Ry

     iteration # 12     ecut=    60.00 Ry     beta= 0.30
     Davidson diagonalization with overlap
     ethr =  4.41E-09,  avg # of iterations =  5.0

     negative rho (up, down):  1.499E-02 0.000E+00

     total cpu time spent up to now is     1528.6 secs

     total energy              =    -629.67600711 Ry
     estimated scf accuracy    <       0.00000138 Ry

     iteration # 13     ecut=    60.00 Ry     beta= 0.30
     Davidson diagonalization with overlap
     ethr =  2.09E-09,  avg # of iterations =  1.0

     negative rho (up, down):  1.499E-02 0.000E+00

     total cpu time spent up to now is     1547.0 secs

     total energy              =    -629.67600703 Ry
     estimated scf accuracy    <       0.00000115 Ry

     iteration # 14     ecut=    60.00 Ry     beta= 0.30
     Davidson diagonalization with overlap
     ethr =  1.74E-09,  avg # of iterations =  5.0

     negative rho (up, down):  1.499E-02 0.000E+00

     total cpu time spent up to now is     1569.3 secs

     total energy              =    -629.67600715 Ry
     estimated scf accuracy    <       0.00000015 Ry

     iteration # 15     ecut=    60.00 Ry     beta= 0.30
     Davidson diagonalization with overlap
     ethr =  2.23E-10,  avg # of iterations =  2.0

     negative rho (up, down):  1.499E-02 0.000E+00

     total cpu time spent up to now is     1588.6 secs

     total energy              =    -629.67600712 Ry
     estimated scf accuracy    <       0.00000011 Ry

     iteration # 16     ecut=    60.00 Ry     beta= 0.30
     Davidson diagonalization with overlap
     ethr =  1.64E-10,  avg # of iterations =  4.0

     negative rho (up, down):  1.499E-02 0.000E+00

     total cpu time spent up to now is     1610.7 secs

     End of self-consistent calculation

          k = 0.0000 0.0000 0.0000 (151690 PWs)   bands (ev):

   -92.7164 -59.3037 -58.5528 -58.5527 -29.1229 -29.1191 -28.7921 -28.7895
   -28.7895 -15.7506 -14.4566 -14.2475 -14.2475 -14.1122 -12.6807 -12.2249
   -12.2249 -12.0282 -12.0281 -11.9919 -11.6052 -11.6052 -11.5787 -11.4051
   -11.3637 -11.3637 -11.0090 -11.0090 -10.5625  -7.6298  -7.6298  -6.3123
    -6.3122

     highest occupied level (ev):    -6.3122

!    total energy              =    -629.67600714 Ry
     total all-electron energy =     -3679.027494 Ry
     estimated scf accuracy    <          9.6E-09 Ry

     The total energy is the sum of the following terms:
     one-electron contribution =   -2258.58534235 Ry
     hartree contribution      =    1131.73645933 Ry
     xc contribution           =     -93.67358713 Ry
     ewald contribution        =     745.56660773 Ry
     one-center paw contrib.   =    -154.72014472 Ry

     convergence has been achieved in  16 iterations

     negative rho (up, down):  1.499E-02 0.000E+00

     Forces acting on atoms (cartesian axes, Ry/au):

     atom    1 type  2   force =    -0.00000544    0.00000000    0.00000000
     atom    2 type  1   force =    -0.00001488    0.00000000    0.00570800
     atom    3 type  3   force =    -0.00001540    0.00000000   -0.00394917
     atom    4 type  1   force =    -0.00001488    0.00000000   -0.00570800
     atom    5 type  3   force =    -0.00001540    0.00000000    0.00394917
     atom    6 type  1   force =    -0.00656170    0.00000000    0.00000000
     atom    7 type  3   force =    -0.01157529    0.00000000    0.00000000
     atom    8 type  1   force =     0.00333412   -0.00564953    0.00000000
     atom    9 type  3   force =     0.00576737   -0.01001288    0.00000000
     atom   10 type  1   force =     0.00333412    0.00564953    0.00000000
     atom   11 type  3   force =     0.00576737    0.01001288    0.00000000

     Total force =     0.025030     Total SCF correction =     0.000179
     Energy error            =      1.1E-03 Ry
     Gradient error          =      1.2E-02 Ry/Bohr

     number of scf cycles    =   3
     number of bfgs steps    =   1

     energy             old  =    -629.6748676990 Ry
     energy             new  =    -629.6760071446 Ry

     CASE: energy            _new < energy            _old

     new trust radius        =       0.0101952513 bohr
     new conv_thr            =       0.0000000100 Ry


ATOMIC_POSITIONS (angstrom)
Fe               8.9499976419        8.9500000000        8.9500000000
C                8.9499902760        8.9500000000       10.7521190344
O                8.9499898157        8.9500000000       11.9054455462
C                8.9499902760        8.9500000000        7.1478809656
O                8.9499898157        8.9500000000        5.9945544538
C               10.7685991769        8.9500000000        8.9500000000
O               11.9256773500        8.9500000000        8.9500000000
C                8.0407348195       10.5249789492        8.9500000000
O                7.4621480045       11.5270193340        8.9500000000
C                8.0407348195        7.3750210508        8.9500000000
O                7.4621480045        6.3729806660        8.9500000000



     Writing config-only to output data dir /mnt/d/Research/Dr.Kulik_MIT/qe/workdirs/fe_co5_initial/fe_co5_initial.save/ :
     XML data file
     NEW-OLD atomic charge density approx. for the potential

     Check: negative core charge=   -0.000002

     negative rho (up, down):  1.499E-02 0.000E+00

     total cpu time spent up to now is     1633.5 secs

     Self-consistent Calculation

     iteration #  1     ecut=    60.00 Ry     beta= 0.30
     Davidson diagonalization with overlap
     ethr =  1.00E-06,  avg # of iterations =  8.0

     Threshold (ethr) on eigenvalues was too large:
     Diagonalizing with lowered threshold

     Davidson diagonalization with overlap
     ethr =  9.45E-08,  avg # of iterations =  4.0

     negative rho (up, down):  1.499E-02 0.000E+00

     total cpu time spent up to now is     1672.8 secs

     total energy              =    -629.67649379 Ry
     estimated scf accuracy    <       0.00007162 Ry

     iteration #  2     ecut=    60.00 Ry     beta= 0.30
     Davidson diagonalization with overlap
     ethr =  1.09E-07,  avg # of iterations =  1.0

     negative rho (up, down):  1.499E-02 0.000E+00

     total cpu time spent up to now is     1691.5 secs

     total energy              =    -629.67648639 Ry
     estimated scf accuracy    <       0.00002504 Ry

     iteration #  3     ecut=    60.00 Ry     beta= 0.30
     Davidson diagonalization with overlap
     ethr =  3.79E-08,  avg # of iterations =  5.0

     negative rho (up, down):  1.499E-02 0.000E+00

     total cpu time spent up to now is     1714.3 secs

     total energy              =    -629.67649211 Ry
     estimated scf accuracy    <       0.00001150 Ry

     iteration #  4     ecut=    60.00 Ry     beta= 0.30
     Davidson diagonalization with overlap
     ethr =  1.74E-08,  avg # of iterations =  5.0

     negative rho (up, down):  1.499E-02 0.000E+00

     total cpu time spent up to now is     1736.5 secs

     total energy              =    -629.67649000 Ry
     estimated scf accuracy    <       0.00000808 Ry

     iteration #  5     ecut=    60.00 Ry     beta= 0.30
     Davidson diagonalization with overlap
     ethr =  1.22E-08,  avg # of iterations =  5.0

     negative rho (up, down):  1.498E-02 0.000E+00

     total cpu time spent up to now is     1757.4 secs

     total energy              =    -629.67648828 Ry
     estimated scf accuracy    <       0.00001250 Ry

     iteration #  6     ecut=    60.00 Ry     beta= 0.30
     Davidson diagonalization with overlap
     ethr =  1.22E-08,  avg # of iterations =  6.0

     negative rho (up, down):  1.498E-02 0.000E+00

     total cpu time spent up to now is     1781.4 secs

     total energy              =    -629.67648949 Ry
     estimated scf accuracy    <       0.00001893 Ry

     iteration #  7     ecut=    60.00 Ry     beta= 0.30
     Davidson diagonalization with overlap
     ethr =  1.22E-08,  avg # of iterations =  5.0

     negative rho (up, down):  1.498E-02 0.000E+00

     total cpu time spent up to now is     1804.8 secs

     total energy              =    -629.67649236 Ry
     estimated scf accuracy    <       0.00000056 Ry

     iteration #  8     ecut=    60.00 Ry     beta= 0.30
     Davidson diagonalization with overlap
     ethr =  8.48E-10,  avg # of iterations =  4.0

     negative rho (up, down):  1.498E-02 0.000E+00

     total cpu time spent up to now is     1825.2 secs

     total energy              =    -629.67649246 Ry
     estimated scf accuracy    <       0.00000052 Ry

     iteration #  9     ecut=    60.00 Ry     beta= 0.30
     Davidson diagonalization with overlap
     ethr =  7.84E-10,  avg # of iterations =  2.0

     negative rho (up, down):  1.498E-02 0.000E+00

     total cpu time spent up to now is     1846.8 secs

     total energy              =    -629.67649243 Ry
     estimated scf accuracy    <       0.00000022 Ry

     iteration # 10     ecut=    60.00 Ry     beta= 0.30
     Davidson diagonalization with overlap
     ethr =  3.31E-10,  avg # of iterations =  5.0

     negative rho (up, down):  1.498E-02 0.000E+00

     total cpu time spent up to now is     1867.1 secs

     total energy              =    -629.67649248 Ry
     estimated scf accuracy    <       0.00000015 Ry

     iteration # 11     ecut=    60.00 Ry     beta= 0.30
     Davidson diagonalization with overlap
     ethr =  2.33E-10,  avg # of iterations =  4.0

     negative rho (up, down):  1.498E-02 0.000E+00

     total cpu time spent up to now is     1888.7 secs

     total energy              =    -629.67649249 Ry
     estimated scf accuracy    <       0.00000013 Ry

     iteration # 12     ecut=    60.00 Ry     beta= 0.30
     Davidson diagonalization with overlap
     ethr =  1.91E-10,  avg # of iterations =  1.0

     negative rho (up, down):  1.498E-02 0.000E+00

     total cpu time spent up to now is     1909.9 secs

     total energy              =    -629.67649247 Ry
     estimated scf accuracy    <       0.00000010 Ry

     iteration # 13     ecut=    60.00 Ry     beta= 0.30
     Davidson diagonalization with overlap
     ethr =  1.56E-10,  avg # of iterations =  3.0

     negative rho (up, down):  1.498E-02 0.000E+00

     total cpu time spent up to now is     1928.5 secs

     End of self-consistent calculation

          k = 0.0000 0.0000 0.0000 (151690 PWs)   bands (ev):

   -92.7244 -59.3065 -58.5648 -58.5647 -29.1390 -29.1353 -28.7943 -28.7917
   -28.7916 -15.7580 -14.4627 -14.2436 -14.2436 -14.1124 -12.6840 -12.2358
   -12.2358 -12.0370 -12.0370 -12.0000 -11.6094 -11.6094 -11.5884 -11.4039
   -11.3666 -11.3666 -11.0176 -11.0175 -10.5622  -7.6380  -7.6380  -6.3208
    -6.3206

     highest occupied level (ev):    -6.3206

!    total energy              =    -629.67649247 Ry
     total all-electron energy =     -3679.027979 Ry
     estimated scf accuracy    <          9.2E-09 Ry

     The total energy is the sum of the following terms:
     one-electron contribution =   -2260.21404257 Ry
     hartree contribution      =    1132.54360314 Ry
     xc contribution           =     -93.68729058 Ry
     ewald contribution        =     746.40147134 Ry
     one-center paw contrib.   =    -154.72023379 Ry

     convergence has been achieved in  13 iterations

     negative rho (up, down):  1.498E-02 0.000E+00

     Forces acting on atoms (cartesian axes, Ry/au):

     atom    1 type  2   force =     0.00000704    0.00000000    0.00000000
     atom    2 type  1   force =    -0.00001952    0.00000000    0.00260852
     atom    3 type  3   force =    -0.00001750    0.00000000   -0.00158782
     atom    4 type  1   force =    -0.00001952    0.00000000   -0.00260852
     atom    5 type  3   force =    -0.00001750    0.00000000    0.00158782
     atom    6 type  1   force =    -0.00631845    0.00000000    0.00000000
     atom    7 type  3   force =    -0.00820294    0.00000000    0.00000000
     atom    8 type  1   force =     0.00319624   -0.00543991   -0.00000000
     atom    9 type  3   force =     0.00409795   -0.00711437    0.00000000
     atom   10 type  1   force =     0.00319624    0.00543991    0.00000000
     atom   11 type  3   force =     0.00409795    0.00711437    0.00000000

     Total force =     0.018447     Total SCF correction =     0.000187
     Energy error            =      4.9E-04 Ry
     Gradient error          =      8.2E-03 Ry/Bohr

     number of scf cycles    =   4
     number of bfgs steps    =   2

     energy             old  =    -629.6760071446 Ry
     energy             new  =    -629.6764924726 Ry

     CASE: energy            _new < energy            _old

     new trust radius        =       0.0112147764 bohr
     new conv_thr            =       0.0000000049 Ry


ATOMIC_POSITIONS (angstrom)
Fe               8.9500026836        8.9500000000        8.9500000000
C                8.9499753516        8.9500000000       10.7526501229
O                8.9499763003        8.9500000000       11.9056343174
C                8.9499753516        8.9500000000        7.1473498771
O                8.9499763003        8.9500000000        5.9943656826
C               10.7628811410        8.9500000000        8.9500000000
O               11.9197469962        8.9500000000        8.9500000000
C                8.0436233981       10.5200527565        8.9500000000
O                7.4651095396       11.5218764909        8.9500000000
C                8.0436233981        7.3799472435        8.9500000000
O                7.4651095396        6.3781235091        8.9500000000



     Writing config-only to output data dir /mnt/d/Research/Dr.Kulik_MIT/qe/workdirs/fe_co5_initial/fe_co5_initial.save/ :
     XML data file
     NEW-OLD atomic charge density approx. for the potential

     Check: negative core charge=   -0.000002

     negative rho (up, down):  1.499E-02 0.000E+00

     total cpu time spent up to now is     1951.5 secs

     Self-consistent Calculation

     iteration #  1     ecut=    60.00 Ry     beta= 0.30
     Davidson diagonalization with overlap
     ethr =  1.00E-06,  avg # of iterations =  8.0

     negative rho (up, down):  1.498E-02 0.000E+00

     total cpu time spent up to now is     1979.8 secs

     total energy              =    -629.67690118 Ry
     estimated scf accuracy    <       0.00008146 Ry

     iteration #  2     ecut=    60.00 Ry     beta= 0.30
     Davidson diagonalization with overlap
     ethr =  1.23E-07,  avg # of iterations =  4.0

     negative rho (up, down):  1.498E-02 0.000E+00

     total cpu time spent up to now is     1998.8 secs

     total energy              =    -629.67689576 Ry
     estimated scf accuracy    <       0.00003322 Ry

     iteration #  3     ecut=    60.00 Ry     beta= 0.30
     Davidson diagonalization with overlap
     ethr =  5.03E-08,  avg # of iterations =  5.0

     negative rho (up, down):  1.498E-02 0.000E+00

     total cpu time spent up to now is     2022.4 secs

     total energy              =    -629.67690748 Ry
     estimated scf accuracy    <       0.00001173 Ry

     iteration #  4     ecut=    60.00 Ry     beta= 0.30
     Davidson diagonalization with overlap
     ethr =  1.78E-08,  avg # of iterations =  1.0

     negative rho (up, down):  1.498E-02 0.000E+00

     total cpu time spent up to now is     2043.2 secs

     total energy              =    -629.67690785 Ry
     estimated scf accuracy    <       0.00001152 Ry

     iteration #  5     ecut=    60.00 Ry     beta= 0.30
     Davidson diagonalization with overlap
     ethr =  1.74E-08,  avg # of iterations =  1.0

     negative rho (up, down):  1.497E-02 0.000E+00

     total cpu time spent up to now is     2061.8 secs

     total energy              =    -629.67690753 Ry
     estimated scf accuracy    <       0.00001170 Ry

     iteration #  6     ecut=    60.00 Ry     beta= 0.30
     Davidson diagonalization with overlap
     ethr =  1.74E-08,  avg # of iterations =  1.0

     negative rho (up, down):  1.497E-02 0.000E+00

     total cpu time spent up to now is     2083.5 secs

     total energy              =    -629.67691344 Ry
     estimated scf accuracy    <       0.00001065 Ry

     iteration #  7     ecut=    60.00 Ry     beta= 0.30
     Davidson diagonalization with overlap
     ethr =  1.61E-08,  avg # of iterations =  5.0

     negative rho (up, down):  1.498E-02 0.000E+00

     total cpu time spent up to now is     2104.5 secs

     total energy              =    -629.67691528 Ry
     estimated scf accuracy    <       0.00004336 Ry

     iteration #  8     ecut=    60.00 Ry     beta= 0.30
     Davidson diagonalization with overlap
     ethr =  1.61E-08,  avg # of iterations =  1.0

     negative rho (up, down):  1.499E-02 0.000E+00

     total cpu time spent up to now is     2125.8 secs

     total energy              =    -629.67695648 Ry
     estimated scf accuracy    <       0.00004225 Ry

     iteration #  9     ecut=    60.00 Ry     beta= 0.30
     Davidson diagonalization with overlap
     ethr =  1.61E-08,  avg # of iterations =  6.0

     negative rho (up, down):  1.499E-02 0.000E+00

     total cpu time spent up to now is     2151.0 secs

     total energy              =    -629.67696312 Ry
     estimated scf accuracy    <       0.00033605 Ry

     iteration # 10     ecut=    60.00 Ry     beta= 0.30
     Davidson diagonalization with overlap
     ethr =  1.61E-08,  avg # of iterations =  1.0

     negative rho (up, down):  1.499E-02 0.000E+00

     total cpu time spent up to now is     2169.4 secs

     total energy              =    -629.67691009 Ry
     estimated scf accuracy    <       0.00029535 Ry

     iteration # 11     ecut=    60.00 Ry     beta= 0.30
     Davidson diagonalization with overlap
     ethr =  1.61E-08,  avg # of iterations =  6.0

     negative rho (up, down):  1.498E-02 0.000E+00

     total cpu time spent up to now is     2193.7 secs

     total energy              =    -629.67691722 Ry
     estimated scf accuracy    <       0.00007981 Ry

     iteration # 12     ecut=    60.00 Ry     beta= 0.30
     Davidson diagonalization with overlap
     ethr =  1.61E-08,  avg # of iterations =  1.0

     negative rho (up, down):  1.498E-02 0.000E+00

     total cpu time spent up to now is     2212.5 secs

     total energy              =    -629.67689346 Ry
     estimated scf accuracy    <       0.00006735 Ry

     iteration # 13     ecut=    60.00 Ry     beta= 0.30
     Davidson diagonalization with overlap
     ethr =  1.61E-08,  avg # of iterations =  6.0

     negative rho (up, down):  1.498E-02 0.000E+00

     total cpu time spent up to now is     2236.7 secs

     total energy              =    -629.67690502 Ry
     estimated scf accuracy    <       0.00000085 Ry

     iteration # 14     ecut=    60.00 Ry     beta= 0.30
     Davidson diagonalization with overlap
     ethr =  1.29E-09,  avg # of iterations =  7.0

     negative rho (up, down):  1.497E-02 0.000E+00

     total cpu time spent up to now is     2263.5 secs

     total energy              =    -629.67690660 Ry
     estimated scf accuracy    <       0.00001294 Ry

     iteration # 15     ecut=    60.00 Ry     beta= 0.30
     Davidson diagonalization with overlap
     ethr =  1.29E-09,  avg # of iterations =  2.0

     negative rho (up, down):  1.497E-02 0.000E+00

     total cpu time spent up to now is     2284.8 secs

     total energy              =    -629.67690608 Ry
     estimated scf accuracy    <       0.00000986 Ry

     iteration # 16     ecut=    60.00 Ry     beta= 0.30
     Davidson diagonalization with overlap
     ethr =  1.29E-09,  avg # of iterations =  2.0

     negative rho (up, down):  1.498E-02 0.000E+00

     total cpu time spent up to now is     2304.1 secs

     total energy              =    -629.67690551 Ry
     estimated scf accuracy    <       0.00000756 Ry

     iteration # 17     ecut=    60.00 Ry     beta= 0.30
     Davidson diagonalization with overlap
     ethr =  1.29E-09,  avg # of iterations =  5.0

     negative rho (up, down):  1.498E-02 0.000E+00

     total cpu time spent up to now is     2327.2 secs

     total energy              =    -629.67690569 Ry
     estimated scf accuracy    <       0.00000271 Ry

     iteration # 18     ecut=    60.00 Ry     beta= 0.30
     Davidson diagonalization with overlap
     ethr =  1.29E-09,  avg # of iterations =  1.0

     negative rho (up, down):  1.497E-02 0.000E+00

     total cpu time spent up to now is     2345.9 secs

     total energy              =    -629.67690495 Ry
     estimated scf accuracy    <       0.00000247 Ry

     iteration # 19     ecut=    60.00 Ry     beta= 0.30
     Davidson diagonalization with overlap
     ethr =  1.29E-09,  avg # of iterations =  5.0

     negative rho (up, down):  1.497E-02 0.000E+00

     total cpu time spent up to now is     2369.3 secs

     total energy              =    -629.67690529 Ry
     estimated scf accuracy    <       0.00000011 Ry

     iteration # 20     ecut=    60.00 Ry     beta= 0.30
     Davidson diagonalization with overlap
     ethr =  1.66E-10,  avg # of iterations =  5.0

     negative rho (up, down):  1.497E-02 0.000E+00

     total cpu time spent up to now is     2392.9 secs

     total energy              =    -629.67690535 Ry
     estimated scf accuracy    <       0.00000010 Ry

     iteration # 21     ecut=    60.00 Ry     beta= 0.30
     Davidson diagonalization with overlap
     ethr =  1.48E-10,  avg # of iterations =  1.0

     negative rho (up, down):  1.497E-02 0.000E+00

     total cpu time spent up to now is     2412.0 secs

     total energy              =    -629.67690535 Ry
     estimated scf accuracy    <       0.00000006 Ry

     iteration # 22     ecut=    60.00 Ry     beta= 0.30
     Davidson diagonalization with overlap
     ethr =  9.81E-11,  avg # of iterations =  1.0

     negative rho (up, down):  1.497E-02 0.000E+00

     total cpu time spent up to now is     2433.0 secs

     total energy              =    -629.67690535 Ry
     estimated scf accuracy    <       0.00000005 Ry

     iteration # 23     ecut=    60.00 Ry     beta= 0.30
     Davidson diagonalization with overlap
     ethr =  7.62E-11,  avg # of iterations =  2.0

     negative rho (up, down):  1.497E-02 0.000E+00

     total cpu time spent up to now is     2451.9 secs

     total energy              =    -629.67690535 Ry
     estimated scf accuracy    <       0.00000003 Ry

     iteration # 24     ecut=    60.00 Ry     beta= 0.30
     Davidson diagonalization with overlap
     ethr =  3.86E-11,  avg # of iterations =  4.0

     negative rho (up, down):  1.497E-02 0.000E+00

     total cpu time spent up to now is     2473.7 secs

     total energy              =    -629.67690536 Ry
     estimated scf accuracy    <          8.9E-09 Ry

     iteration # 25     ecut=    60.00 Ry     beta= 0.30
     Davidson diagonalization with overlap
     ethr =  1.34E-11,  avg # of iterations =  5.0

     negative rho (up, down):  1.497E-02 0.000E+00

     total cpu time spent up to now is     2495.8 secs

     total energy              =    -629.67690536 Ry
     estimated scf accuracy    <          6.6E-09 Ry

     iteration # 26     ecut=    60.00 Ry     beta= 0.30
     Davidson diagonalization with overlap
     ethr =  1.01E-11,  avg # of iterations =  1.0

     negative rho (up, down):  1.497E-02 0.000E+00

     total cpu time spent up to now is     2514.9 secs

     total energy              =    -629.67690535 Ry
     estimated scf accuracy    <          7.6E-09 Ry

     iteration # 27     ecut=    60.00 Ry     beta= 0.30
     Davidson diagonalization with overlap
     ethr =  1.01E-11,  avg # of iterations =  8.0

     negative rho (up, down):  1.497E-02 0.000E+00

     total cpu time spent up to now is     2538.9 secs

     total energy              =    -629.67690535 Ry
     estimated scf accuracy    <       0.00000008 Ry

     iteration # 28     ecut=    60.00 Ry     beta= 0.30
     Davidson diagonalization with overlap
     ethr =  1.01E-11,  avg # of iterations =  5.0

     negative rho (up, down):  1.497E-02 0.000E+00

     total cpu time spent up to now is     2561.8 secs

     total energy              =    -629.67690535 Ry
     estimated scf accuracy    <       0.00000001 Ry

     iteration # 29     ecut=    60.00 Ry     beta= 0.30
     Davidson diagonalization with overlap
     ethr =  1.01E-11,  avg # of iterations =  6.0

     negative rho (up, down):  1.497E-02 0.000E+00

     total cpu time spent up to now is     2582.8 secs

     End of self-consistent calculation

          k = 0.0000 0.0000 0.0000 (151690 PWs)   bands (ev):

   -92.7394 -59.3151 -58.5846 -58.5844 -29.1530 -29.1494 -28.7891 -28.7863
   -28.7862 -15.7717 -14.4720 -14.2416 -14.2416 -14.1149 -12.6881 -12.2468
   -12.2467 -12.0457 -12.0457 -12.0079 -11.6113 -11.6113 -11.6030 -11.3982
   -11.3661 -11.3661 -11.0280 -11.0278 -10.5611  -7.6528  -7.6527  -6.3357
    -6.3354

     highest occupied level (ev):    -6.3354

!    total energy              =    -629.67690535 Ry
     total all-electron energy =     -3679.028392 Ry
     estimated scf accuracy    <          1.7E-09 Ry

     The total energy is the sum of the following terms:
     one-electron contribution =   -2262.05590594 Ry
     hartree contribution      =    1133.45664639 Ry
     xc contribution           =     -93.69967290 Ry
     ewald contribution        =     747.34247949 Ry
     one-center paw contrib.   =    -154.72045238 Ry

     convergence has been achieved in  29 iterations

     negative rho (up, down):  1.497E-02 0.000E+00

     Forces acting on atoms (cartesian axes, Ry/au):

     atom    1 type  2   force =     0.00001566    0.00000000    0.00000000
     atom    2 type  1   force =    -0.00002063    0.00000000    0.00089922
     atom    3 type  3   force =    -0.00002185    0.00000000   -0.00053576
     atom    4 type  1   force =    -0.00002063    0.00000000   -0.00089922
     atom    5 type  3   force =    -0.00002185    0.00000000    0.00053576
     atom    6 type  1   force =    -0.00350261    0.00000000    0.00000000
     atom    7 type  3   force =    -0.00664364    0.00000000    0.00000000
     atom    8 type  1   force =     0.00180833   -0.00307743    0.00000000
     atom    9 type  3   force =     0.00329945   -0.00572393    0.00000000
     atom   10 type  1   force =     0.00180833    0.00307743    0.00000000
     atom   11 type  3   force =     0.00329945    0.00572393    0.00000000

     Total force =     0.013091     Total SCF correction =     0.000060
     Energy error            =      4.1E-04 Ry
     Gradient error          =      6.6E-03 Ry/Bohr

     number of scf cycles    =   5
     number of bfgs steps    =   3

     energy             old  =    -629.6764924726 Ry
     energy             new  =    -629.6769053511 Ry

     CASE: energy            _new < energy            _old

     new trust radius        =       0.0168221646 bohr
     new conv_thr            =       0.0000000041 Ry


ATOMIC_POSITIONS (angstrom)
Fe               8.9500198222        8.9500000000        8.9500000000
C                8.9499484741        8.9500000000       10.7525825926
O                8.9499488454        8.9500000000       11.9063429651
C                8.9499484741        8.9500000000        7.1474174074
O                8.9499488454        8.9500000000        5.9936570349
C               10.7560868979        8.9500000000        8.9500000000
O               11.9108450900        8.9500000000        8.9500000000
C                8.0470900877       10.5141400591        8.9500000000
O                7.4695366878       11.5141928224        8.9500000000
C                8.0470900877        7.3858599409        8.9500000000
O                7.4695366878        6.3858071776        8.9500000000



     Writing config-only to output data dir /mnt/d/Research/Dr.Kulik_MIT/qe/workdirs/fe_co5_initial/fe_co5_initial.save/ :
     XML data file
     NEW-OLD atomic charge density approx. for the potential

     Check: negative core charge=   -0.000002

     negative rho (up, down):  1.499E-02 0.000E+00

     total cpu time spent up to now is     2605.8 secs

     Self-consistent Calculation

     iteration #  1     ecut=    60.00 Ry     beta= 0.30
     Davidson diagonalization with overlap
     ethr =  1.00E-06,  avg # of iterations =  9.0

     negative rho (up, down):  1.498E-02 0.000E+00

     total cpu time spent up to now is     2635.6 secs

     total energy              =    -629.67720875 Ry
     estimated scf accuracy    <       0.00017513 Ry

     iteration #  2     ecut=    60.00 Ry     beta= 0.30
     Davidson diagonalization with overlap
     ethr =  2.65E-07,  avg # of iterations =  2.0

     negative rho (up, down):  1.498E-02 0.000E+00

     total cpu time spent up to now is     2654.8 secs

     total energy              =    -629.67718938 Ry
     estimated scf accuracy    <       0.00006207 Ry

     iteration #  3     ecut=    60.00 Ry     beta= 0.30
     Davidson diagonalization with overlap
     ethr =  9.41E-08,  avg # of iterations =  6.0

     negative rho (up, down):  1.497E-02 0.000E+00

     total cpu time spent up to now is     2678.1 secs

     total energy              =    -629.67722379 Ry
     estimated scf accuracy    <       0.00003622 Ry

     iteration #  4     ecut=    60.00 Ry     beta= 0.30
     Davidson diagonalization with overlap
     ethr =  5.49E-08,  avg # of iterations =  2.0

     negative rho (up, down):  1.497E-02 0.000E+00

     total cpu time spent up to now is     2699.7 secs

     total energy              =    -629.67721332 Ry
     estimated scf accuracy    <       0.00005958 Ry

     iteration #  5     ecut=    60.00 Ry     beta= 0.30
     Davidson diagonalization with overlap
     ethr =  5.49E-08,  avg # of iterations =  4.0

     negative rho (up, down):  1.497E-02 0.000E+00

     total cpu time spent up to now is     2718.9 secs

     total energy              =    -629.67720542 Ry
     estimated scf accuracy    <       0.00006259 Ry

     iteration #  6     ecut=    60.00 Ry     beta= 0.30
     Davidson diagonalization with overlap
     ethr =  5.49E-08,  avg # of iterations =  3.0

     negative rho (up, down):  1.497E-02 0.000E+00

     total cpu time spent up to now is     2740.8 secs

     total energy              =    -629.67720656 Ry
     estimated scf accuracy    <       0.00002930 Ry

     iteration #  7     ecut=    60.00 Ry     beta= 0.30
     Davidson diagonalization with overlap
     ethr =  4.44E-08,  avg # of iterations =  4.0

     negative rho (up, down):  1.497E-02 0.000E+00

     total cpu time spent up to now is     2760.5 secs

     total energy              =    -629.67720347 Ry
     estimated scf accuracy    <       0.00000858 Ry

     iteration #  8     ecut=    60.00 Ry     beta= 0.30
     Davidson diagonalization with overlap
     ethr =  1.30E-08,  avg # of iterations =  6.0

     negative rho (up, down):  1.497E-02 0.000E+00

     total cpu time spent up to now is     2783.9 secs

     total energy              =    -629.67720984 Ry
     estimated scf accuracy    <       0.00000802 Ry

     iteration #  9     ecut=    60.00 Ry     beta= 0.30
     Davidson diagonalization with overlap
     ethr =  1.22E-08,  avg # of iterations =  1.0

     negative rho (up, down):  1.497E-02 0.000E+00

     total cpu time spent up to now is     2805.1 secs

     total energy              =    -629.67720646 Ry
     estimated scf accuracy    <       0.00000772 Ry

     iteration # 10     ecut=    60.00 Ry     beta= 0.30
     Davidson diagonalization with overlap
     ethr =  1.17E-08,  avg # of iterations =  4.0

     negative rho (up, down):  1.497E-02 0.000E+00

     total cpu time spent up to now is     2825.3 secs

     total energy              =    -629.67720791 Ry
     estimated scf accuracy    <       0.00000202 Ry

     iteration # 11     ecut=    60.00 Ry     beta= 0.30
     Davidson diagonalization with overlap
     ethr =  3.05E-09,  avg # of iterations =  2.0

     negative rho (up, down):  1.497E-02 0.000E+00

     total cpu time spent up to now is     2847.4 secs

     total energy              =    -629.67720803 Ry
     estimated scf accuracy    <       0.00000105 Ry

     iteration # 12     ecut=    60.00 Ry     beta= 0.30
     Davidson diagonalization with overlap
     ethr =  1.60E-09,  avg # of iterations =  4.0

     negative rho (up, down):  1.497E-02 0.000E+00

     total cpu time spent up to now is     2867.2 secs

     total energy              =    -629.67720815 Ry
     estimated scf accuracy    <       0.00000037 Ry

     iteration # 13     ecut=    60.00 Ry     beta= 0.30
     Davidson diagonalization with overlap
     ethr =  5.61E-10,  avg # of iterations =  5.0

     negative rho (up, down):  1.497E-02 0.000E+00

     total cpu time spent up to now is     2889.6 secs

     total energy              =    -629.67720813 Ry
     estimated scf accuracy    <       0.00000114 Ry

     iteration # 14     ecut=    60.00 Ry     beta= 0.30
     Davidson diagonalization with overlap
     ethr =  5.61E-10,  avg # of iterations =  2.0

     negative rho (up, down):  1.497E-02 0.000E+00

     total cpu time spent up to now is     2911.1 secs

     total energy              =    -629.67720817 Ry
     estimated scf accuracy    <       0.00000085 Ry

     iteration # 15     ecut=    60.00 Ry     beta= 0.30
     Davidson diagonalization with overlap
     ethr =  5.61E-10,  avg # of iterations =  3.0

     negative rho (up, down):  1.497E-02 0.000E+00

     total cpu time spent up to now is     2930.4 secs

     total energy              =    -629.67720806 Ry
     estimated scf accuracy    <       0.00000089 Ry

     iteration # 16     ecut=    60.00 Ry     beta= 0.30
     Davidson diagonalization with overlap
     ethr =  5.61E-10,  avg # of iterations =  5.0

     negative rho (up, down):  1.497E-02 0.000E+00

     total cpu time spent up to now is     2953.2 secs

     total energy              =    -629.67720807 Ry
     estimated scf accuracy    <       0.00000033 Ry

     iteration # 17     ecut=    60.00 Ry     beta= 0.30
     Davidson diagonalization with overlap
     ethr =  5.07E-10,  avg # of iterations =  5.0

     negative rho (up, down):  1.497E-02 0.000E+00

     total cpu time spent up to now is     2975.4 secs

     total energy              =    -629.67720810 Ry
     estimated scf accuracy    <       0.00000018 Ry

     iteration # 18     ecut=    60.00 Ry     beta= 0.30
     Davidson diagonalization with overlap
     ethr =  2.68E-10,  avg # of iterations =  2.0

     negative rho (up, down):  1.497E-02 0.000E+00

     total cpu time spent up to now is     2995.0 secs

     total energy              =    -629.67720811 Ry
     estimated scf accuracy    <       0.00000009 Ry

     iteration # 19     ecut=    60.00 Ry     beta= 0.30
     Davidson diagonalization with overlap
     ethr =  1.35E-10,  avg # of iterations =  5.0

     negative rho (up, down):  1.497E-02 0.000E+00

     total cpu time spent up to now is     3016.7 secs

     total energy              =    -629.67720812 Ry
     estimated scf accuracy    <       0.00000004 Ry

     iteration # 20     ecut=    60.00 Ry     beta= 0.30
     Davidson diagonalization with overlap
     ethr =  6.59E-11,  avg # of iterations =  2.0

     negative rho (up, down):  1.497E-02 0.000E+00

     total cpu time spent up to now is     3036.2 secs

     total energy              =    -629.67720811 Ry
     estimated scf accuracy    <       0.00000004 Ry

     iteration # 21     ecut=    60.00 Ry     beta= 0.30
     Davidson diagonalization with overlap
     ethr =  5.47E-11,  avg # of iterations =  7.0

     negative rho (up, down):  1.497E-02 0.000E+00

     total cpu time spent up to now is     3061.1 secs

     total energy              =    -629.67720826 Ry
     estimated scf accuracy    <       0.00000069 Ry

     iteration # 22     ecut=    60.00 Ry     beta= 0.30
     Davidson diagonalization with overlap
     ethr =  5.47E-11,  avg # of iterations =  6.0

     negative rho (up, down):  1.497E-02 0.000E+00

     total cpu time spent up to now is     3084.3 secs

     total energy              =    -629.67720829 Ry
     estimated scf accuracy    <       0.00000186 Ry

     iteration # 23     ecut=    60.00 Ry     beta= 0.30
     Davidson diagonalization with overlap
     ethr =  5.47E-11,  avg # of iterations =  1.0

     negative rho (up, down):  1.497E-02 0.000E+00

     total cpu time spent up to now is     3103.1 secs

     total energy              =    -629.67720822 Ry
     estimated scf accuracy    <       0.00000189 Ry

     iteration # 24     ecut=    60.00 Ry     beta= 0.30
     Davidson diagonalization with overlap
     ethr =  5.47E-11,  avg # of iterations =  6.0

     negative rho (up, down):  1.497E-02 0.000E+00

     total cpu time spent up to now is     3126.3 secs

     total energy              =    -629.67720806 Ry
     estimated scf accuracy    <       0.00000102 Ry

     iteration # 25     ecut=    60.00 Ry     beta= 0.30
     Davidson diagonalization with overlap
     ethr =  5.47E-11,  avg # of iterations =  7.0

     negative rho (up, down):  1.497E-02 0.000E+00

     total cpu time spent up to now is     3150.7 secs

     total energy              =    -629.67720812 Ry
     estimated scf accuracy    <       0.00000006 Ry

     iteration # 26     ecut=    60.00 Ry     beta= 0.30
     Davidson diagonalization with overlap
     ethr =  5.47E-11,  avg # of iterations =  2.0

     negative rho (up, down):  1.497E-02 0.000E+00

     total cpu time spent up to now is     3170.1 secs

     total energy              =    -629.67720813 Ry
     estimated scf accuracy    <       0.00000005 Ry

     iteration # 27     ecut=    60.00 Ry     beta= 0.30
     Davidson diagonalization with overlap
     ethr =  5.47E-11,  avg # of iterations =  1.0

     negative rho (up, down):  1.497E-02 0.000E+00

     total cpu time spent up to now is     3191.8 secs

     total energy              =    -629.67720813 Ry
     estimated scf accuracy    <       0.00000005 Ry

     iteration # 28     ecut=    60.00 Ry     beta= 0.30
     Davidson diagonalization with overlap
     ethr =  5.47E-11,  avg # of iterations =  4.0

     negative rho (up, down):  1.497E-02 0.000E+00

     total cpu time spent up to now is     3211.6 secs

     total energy              =    -629.67720812 Ry
     estimated scf accuracy    <       0.00000006 Ry

     iteration # 29     ecut=    60.00 Ry     beta= 0.30
     Davidson diagonalization with overlap
     ethr =  5.47E-11,  avg # of iterations =  2.0

     negative rho (up, down):  1.497E-02 0.000E+00

     total cpu time spent up to now is     3233.2 secs

     total energy              =    -629.67720812 Ry
     estimated scf accuracy    <       0.00000002 Ry

     iteration # 30     ecut=    60.00 Ry     beta= 0.30
     Davidson diagonalization with overlap
     ethr =  3.57E-11,  avg # of iterations =  5.0

     negative rho (up, down):  1.497E-02 0.000E+00

     total cpu time spent up to now is     3256.3 secs

     total energy              =    -629.67720812 Ry
     estimated scf accuracy    <          8.0E-09 Ry

     iteration # 31     ecut=    60.00 Ry     beta= 0.30
     Davidson diagonalization with overlap
     ethr =  1.21E-11,  avg # of iterations =  2.0

     negative rho (up, down):  1.497E-02 0.000E+00

     total cpu time spent up to now is     3275.0 secs

     total energy              =    -629.67720812 Ry
     estimated scf accuracy    <          7.5E-09 Ry

     iteration # 32     ecut=    60.00 Ry     beta= 0.30
     Davidson diagonalization with overlap
     ethr =  1.13E-11,  avg # of iterations =  6.0

     negative rho (up, down):  1.497E-02 0.000E+00

     total cpu time spent up to now is     3297.4 secs

     total energy              =    -629.67720812 Ry
     estimated scf accuracy    <       0.00000001 Ry

     iteration # 33     ecut=    60.00 Ry     beta= 0.30
     Davidson diagonalization with overlap
     ethr =  1.13E-11,  avg # of iterations =  2.0

     negative rho (up, down):  1.497E-02 0.000E+00

     total cpu time spent up to now is     3315.8 secs

     End of self-consistent calculation

          k = 0.0000 0.0000 0.0000 (151690 PWs)   bands (ev):

   -92.7524 -59.3218 -58.6034 -58.6030 -29.1427 -29.1388 -28.8130 -28.8103
   -28.8094 -15.7860 -14.4780 -14.2380 -14.2379 -14.1146 -12.6893 -12.2541
   -12.2540 -12.0451 -12.0450 -12.0238 -11.6313 -11.6306 -11.6218 -11.4109
   -11.3718 -11.3712 -11.0379 -11.0376 -10.5619  -7.6679  -7.6677  -6.3491
    -6.3487

     highest occupied level (ev):    -6.3487

!    total energy              =    -629.67720812 Ry
     total all-electron energy =     -3679.028695 Ry
     estimated scf accuracy    <          3.3E-09 Ry

     The total energy is the sum of the following terms:
     one-electron contribution =   -2264.66335024 Ry
     hartree contribution      =    1134.75026563 Ry
     xc contribution           =     -93.72103539 Ry
     ewald contribution        =     748.67755073 Ry
     one-center paw contrib.   =    -154.72063885 Ry

     convergence has been achieved in  33 iterations

     negative rho (up, down):  1.497E-02 0.000E+00

     Forces acting on atoms (cartesian axes, Ry/au):

     atom    1 type  2   force =    -0.00000384    0.00000000    0.00000000
     atom    2 type  1   force =    -0.00001047    0.00000000    0.00367256
     atom    3 type  3   force =    -0.00002293    0.00000000   -0.00372073
     atom    4 type  1   force =    -0.00001047    0.00000000   -0.00367256
     atom    5 type  3   force =    -0.00002293    0.00000000    0.00372073
     atom    6 type  1   force =    -0.00704682    0.00000000    0.00000000
     atom    7 type  3   force =     0.00260689    0.00000000    0.00000000
     atom    8 type  1   force =     0.00339556   -0.00586415    0.00000000
     atom    9 type  3   force =    -0.00114028    0.00197669    0.00000000
     atom   10 type  1   force =     0.00339556    0.00586415    0.00000000
     atom   11 type  3   force =    -0.00114028   -0.00197669    0.00000000

     Total force =     0.014607     Total SCF correction =     0.000087
     Energy error            =      3.0E-04 Ry
     Gradient error          =      7.0E-03 Ry/Bohr

     number of scf cycles    =   6
     number of bfgs steps    =   4

     energy             old  =    -629.6769053511 Ry
     energy             new  =    -629.6772081196 Ry

     CASE: energy            _new < energy            _old

     new trust radius        =       0.0242098576 bohr
     new conv_thr            =       0.0000000030 Ry


ATOMIC_POSITIONS (angstrom)
Fe               8.9500367652        8.9500000000        8.9500000000
C                8.9499103348        8.9500000000       10.7548147113
O                8.9499002450        8.9500000000       11.9047412216
C                8.9499103348        8.9500000000        7.1451852887
O                8.9499002450        8.9500000000        5.9952587784
C               10.7432755930        8.9500000000        8.9500000000
O               11.9028087377        8.9500000000        8.9500000000
C                8.0534831790       10.5031807535        8.9500000000
O                7.4736456933       11.5070597593        8.9500000000
C                8.0534831790        7.3968192465        8.9500000000
O                7.4736456933        6.3929402407        8.9500000000



     Writing config-only to output data dir /mnt/d/Research/Dr.Kulik_MIT/qe/workdirs/fe_co5_initial/fe_co5_initial.save/ :
     XML data file
     NEW-OLD atomic charge density approx. for the potential

     Check: negative core charge=   -0.000002

     negative rho (up, down):  1.499E-02 0.000E+00

     total cpu time spent up to now is     3339.3 secs

     Self-consistent Calculation

     iteration #  1     ecut=    60.00 Ry     beta= 0.30
     Davidson diagonalization with overlap
     ethr =  1.00E-06,  avg # of iterations = 10.0

     negative rho (up, down):  1.497E-02 0.000E+00

     total cpu time spent up to now is     3368.6 secs

     total energy              =    -629.67697518 Ry
     estimated scf accuracy    <       0.00035792 Ry

     iteration #  2     ecut=    60.00 Ry     beta= 0.30
     Davidson diagonalization with overlap
     ethr =  5.42E-07,  avg # of iterations =  2.0

     negative rho (up, down):  1.498E-02 0.000E+00

     total cpu time spent up to now is     3390.1 secs

     total energy              =    -629.67693837 Ry
     estimated scf accuracy    <       0.00015671 Ry

     iteration #  3     ecut=    60.00 Ry     beta= 0.30
     Davidson diagonalization with overlap
     ethr =  2.37E-07,  avg # of iterations =  4.0

     negative rho (up, down):  1.497E-02 0.000E+00

     total cpu time spent up to now is     3410.2 secs

     total energy              =    -629.67696218 Ry
     estimated scf accuracy    <       0.00001253 Ry

     iteration #  4     ecut=    60.00 Ry     beta= 0.30
     Davidson diagonalization with overlap
     ethr =  1.90E-08,  avg # of iterations =  6.0

     negative rho (up, down):  1.496E-02 0.000E+00

     total cpu time spent up to now is     3435.1 secs

     total energy              =    -629.67697281 Ry
     estimated scf accuracy    <       0.00000720 Ry

     iteration #  5     ecut=    60.00 Ry     beta= 0.30
     Davidson diagonalization with overlap
     ethr =  1.09E-08,  avg # of iterations =  4.0

     negative rho (up, down):  1.496E-02 0.000E+00

     total cpu time spent up to now is     3454.2 secs

     total energy              =    -629.67697209 Ry
     estimated scf accuracy    <       0.00000345 Ry

     iteration #  6     ecut=    60.00 Ry     beta= 0.30
     Davidson diagonalization with overlap
     ethr =  5.23E-09,  avg # of iterations =  5.0

     negative rho (up, down):  1.496E-02 0.000E+00

     total cpu time spent up to now is     3477.8 secs

     total energy              =    -629.67697307 Ry
     estimated scf accuracy    <       0.00000223 Ry

     iteration #  7     ecut=    60.00 Ry     beta= 0.30
     Davidson diagonalization with overlap
     ethr =  3.37E-09,  avg # of iterations =  5.0

     negative rho (up, down):  1.496E-02 0.000E+00

     total cpu time spent up to now is     3500.2 secs

     total energy              =    -629.67697300 Ry
     estimated scf accuracy    <       0.00000184 Ry

     iteration #  8     ecut=    60.00 Ry     beta= 0.30
     Davidson diagonalization with overlap
     ethr =  2.79E-09,  avg # of iterations =  5.0

     negative rho (up, down):  1.496E-02 0.000E+00

     total cpu time spent up to now is     3519.8 secs

     total energy              =    -629.67697331 Ry
     estimated scf accuracy    <       0.00000209 Ry

     iteration #  9     ecut=    60.00 Ry     beta= 0.30
     Davidson diagonalization with overlap
     ethr =  2.79E-09,  avg # of iterations =  3.0

     negative rho (up, down):  1.496E-02 0.000E+00

     total cpu time spent up to now is     3541.7 secs

     total energy              =    -629.67697340 Ry
     estimated scf accuracy    <       0.00000062 Ry

     iteration # 10     ecut=    60.00 Ry     beta= 0.30
     Davidson diagonalization with overlap
     ethr =  9.42E-10,  avg # of iterations =  4.0

     negative rho (up, down):  1.496E-02 0.000E+00

     total cpu time spent up to now is     3563.8 secs

     total energy              =    -629.67697346 Ry
     estimated scf accuracy    <       0.00000009 Ry

     iteration # 11     ecut=    60.00 Ry     beta= 0.30
     Davidson diagonalization with overlap
     ethr =  1.30E-10,  avg # of iterations =  5.0

     negative rho (up, down):  1.496E-02 0.000E+00

     total cpu time spent up to now is     3584.0 secs

     total energy              =    -629.67697345 Ry
     estimated scf accuracy    <       0.00000005 Ry

     iteration # 12     ecut=    60.00 Ry     beta= 0.30
     Davidson diagonalization with overlap
     ethr =  7.08E-11,  avg # of iterations =  6.0

     negative rho (up, down):  1.496E-02 0.000E+00

     total cpu time spent up to now is     3607.9 secs

     total energy              =    -629.67697347 Ry
     estimated scf accuracy    <          3.7E-09 Ry

     iteration # 13     ecut=    60.00 Ry     beta= 0.30
     Davidson diagonalization with overlap
     ethr =  5.54E-12,  avg # of iterations =  7.0

     negative rho (up, down):  1.496E-02 0.000E+00

     total cpu time spent up to now is     3634.3 secs

     total energy              =    -629.67697347 Ry
     estimated scf accuracy    <          7.0E-09 Ry

     iteration # 14     ecut=    60.00 Ry     beta= 0.30
     Davidson diagonalization with overlap
     ethr =  5.54E-12,  avg # of iterations =  5.0

     negative rho (up, down):  1.496E-02 0.000E+00

     total cpu time spent up to now is     3654.1 secs

     total energy              =    -629.67697347 Ry
     estimated scf accuracy    <       0.00000001 Ry

     iteration # 15     ecut=    60.00 Ry     beta= 0.30
     Davidson diagonalization with overlap
     ethr =  5.54E-12,  avg # of iterations =  2.0

     negative rho (up, down):  1.496E-02 0.000E+00

     total cpu time spent up to now is     3676.1 secs

     total energy              =    -629.67697347 Ry
     estimated scf accuracy    <       0.00000001 Ry

     iteration # 16     ecut=    60.00 Ry     beta= 0.30
     Davidson diagonalization with overlap
     ethr =  5.54E-12,  avg # of iterations =  4.0

     negative rho (up, down):  1.496E-02 0.000E+00

     total cpu time spent up to now is     3695.7 secs

     total energy              =    -629.67697347 Ry
     estimated scf accuracy    <          3.5E-09 Ry

     iteration # 17     ecut=    60.00 Ry     beta= 0.30
     Davidson diagonalization with overlap
     ethr =  5.35E-12,  avg # of iterations =  1.0

     negative rho (up, down):  1.496E-02 0.000E+00

     total cpu time spent up to now is     3716.3 secs

     End of self-consistent calculation

          k = 0.0000 0.0000 0.0000 (151690 PWs)   bands (ev):

   -92.8027 -59.3546 -58.6661 -58.6658 -29.2439 -29.2407 -28.7189 -28.7159
   -28.7119 -15.8271 -14.5131 -14.2408 -14.2404 -14.1327 -12.7079 -12.2978
   -12.2972 -12.0945 -12.0941 -12.0263 -11.6543 -11.5921 -11.5905 -11.3518
   -11.3502 -11.3446 -11.0657 -11.0656 -10.5499  -7.7127  -7.7125  -6.3966
    -6.3957

     highest occupied level (ev):    -6.3957

!    total energy              =    -629.67697347 Ry
     total all-electron energy =     -3679.028460 Ry
     estimated scf accuracy    <          2.6E-09 Ry

     The total energy is the sum of the following terms:
     one-electron contribution =   -2267.83470349 Ry
     hartree contribution      =    1136.30767367 Ry
     xc contribution           =     -93.73086151 Ry
     ewald contribution        =     750.30238500 Ry
     one-center paw contrib.   =    -154.72146713 Ry

     convergence has been achieved in  17 iterations

     negative rho (up, down):  1.496E-02 0.000E+00

     Forces acting on atoms (cartesian axes, Ry/au):

     atom    1 type  2   force =    -0.00003065    0.00000000    0.00000000
     atom    2 type  1   force =     0.00000527    0.00000000   -0.01201191
     atom    3 type  3   force =    -0.00001801    0.00000000    0.01035726
     atom    4 type  1   force =     0.00000527    0.00000000    0.01201191
     atom    5 type  3   force =    -0.00001801    0.00000000   -0.01035726
     atom    6 type  1   force =     0.01990558    0.00000000    0.00000000
     atom    7 type  3   force =    -0.01438222    0.00000000    0.00000000
     atom    8 type  1   force =    -0.00951058    0.01636418    0.00000000
     atom    9 type  3   force =     0.00677697   -0.01168989    0.00000000
     atom   10 type  1   force =    -0.00951058   -0.01636418    0.00000000
     atom   11 type  3   force =     0.00677697    0.01168989    0.00000000

     Total force =     0.046774     Total SCF correction =     0.000070
     Energy error            =      2.3E-04 Ry
     Gradient error          =      2.0E-02 Ry/Bohr

     number of scf cycles    =   7
     number of bfgs steps    =   5

     energy             old  =    -629.6772081196 Ry
     energy             new  =    -629.6769734665 Ry

     CASE: energy            _new > energy            _old

     new trust radius        =       0.0078850844 bohr
     new conv_thr            =       0.0000000030 Ry


ATOMIC_POSITIONS (angstrom)
Fe               8.9500253405        8.9500000000        8.9500000000
C                8.9499360522        8.9500000000       10.7533095876
O                8.9499330164        8.9500000000       11.9058212816
C                8.9499360522        8.9500000000        7.1466904124
O                8.9499330164        8.9500000000        5.9941787184
C               10.7519142910        8.9500000000        8.9500000000
O               11.9082276720        8.9500000000        8.9500000000
C                8.0491723000       10.5105706433        8.9500000000
O                7.4708749796       11.5118696032        8.9500000000
C                8.0491723000        7.3894293567        8.9500000000
O                7.4708749796        6.3881303968        8.9500000000



     Writing config-only to output data dir /mnt/d/Research/Dr.Kulik_MIT/qe/workdirs/fe_co5_initial/fe_co5_initial.save/ :
     XML data file
     NEW-OLD atomic charge density approx. for the potential

     Check: negative core charge=   -0.000002

     negative rho (up, down):  1.494E-02 0.000E+00

     total cpu time spent up to now is     3739.2 secs

     Self-consistent Calculation

     iteration #  1     ecut=    60.00 Ry     beta= 0.30
     Davidson diagonalization with overlap
     ethr =  1.00E-06,  avg # of iterations =  8.0

     negative rho (up, down):  1.495E-02 0.000E+00

     total cpu time spent up to now is     3766.2 secs

     total energy              =    -629.67727906 Ry
     estimated scf accuracy    <       0.00016250 Ry

     iteration #  2     ecut=    60.00 Ry     beta= 0.30
     Davidson diagonalization with overlap
     ethr =  2.46E-07,  avg # of iterations =  4.0

     negative rho (up, down):  1.496E-02 0.000E+00

     total cpu time spent up to now is     3787.8 secs

     total energy              =    -629.67727104 Ry
     estimated scf accuracy    <       0.00009453 Ry

     iteration #  3     ecut=    60.00 Ry     beta= 0.30
     Davidson diagonalization with overlap
     ethr =  1.43E-07,  avg # of iterations =  5.0

     negative rho (up, down):  1.497E-02 0.000E+00

     total cpu time spent up to now is     3810.0 secs

     total energy              =    -629.67726267 Ry
     estimated scf accuracy    <       0.00015420 Ry

     iteration #  4     ecut=    60.00 Ry     beta= 0.30
     Davidson diagonalization with overlap
     ethr =  1.43E-07,  avg # of iterations =  5.0

     negative rho (up, down):  1.497E-02 0.000E+00

     total cpu time spent up to now is     3830.0 secs

     total energy              =    -629.67727674 Ry
     estimated scf accuracy    <       0.00000610 Ry

     iteration #  5     ecut=    60.00 Ry     beta= 0.30
     Davidson diagonalization with overlap
     ethr =  9.24E-09,  avg # of iterations =  5.0

     negative rho (up, down):  1.496E-02 0.000E+00

     total cpu time spent up to now is     3853.7 secs

     total energy              =    -629.67727845 Ry
     estimated scf accuracy    <       0.00000366 Ry

     iteration #  6     ecut=    60.00 Ry     beta= 0.30
     Davidson diagonalization with overlap
     ethr =  5.54E-09,  avg # of iterations =  6.0

     negative rho (up, down):  1.497E-02 0.000E+00

     total cpu time spent up to now is     3876.9 secs

     total energy              =    -629.67727935 Ry
     estimated scf accuracy    <       0.00000432 Ry

     iteration #  7     ecut=    60.00 Ry     beta= 0.30
     Davidson diagonalization with overlap
     ethr =  5.54E-09,  avg # of iterations =  5.0

     negative rho (up, down):  1.497E-02 0.000E+00

     total cpu time spent up to now is     3896.9 secs

     total energy              =    -629.67727992 Ry
     estimated scf accuracy    <       0.00000017 Ry

     iteration #  8     ecut=    60.00 Ry     beta= 0.30
     Davidson diagonalization with overlap
     ethr =  2.60E-10,  avg # of iterations =  7.0

     negative rho (up, down):  1.497E-02 0.000E+00

     total cpu time spent up to now is     3923.5 secs

     total energy              =    -629.67728002 Ry
     estimated scf accuracy    <       0.00000083 Ry

     iteration #  9     ecut=    60.00 Ry     beta= 0.30
     Davidson diagonalization with overlap
     ethr =  2.60E-10,  avg # of iterations =  3.0

     negative rho (up, down):  1.497E-02 0.000E+00

     total cpu time spent up to now is     3946.5 secs

     total energy              =    -629.67728002 Ry
     estimated scf accuracy    <       0.00000017 Ry

     iteration # 10     ecut=    60.00 Ry     beta= 0.30
     Davidson diagonalization with overlap
     ethr =  2.51E-10,  avg # of iterations =  5.0

     negative rho (up, down):  1.497E-02 0.000E+00

     total cpu time spent up to now is     3968.2 secs

     total energy              =    -629.67728005 Ry
     estimated scf accuracy    <       0.00000022 Ry

     iteration # 11     ecut=    60.00 Ry     beta= 0.30
     Davidson diagonalization with overlap
     ethr =  2.51E-10,  avg # of iterations =  3.0

     negative rho (up, down):  1.497E-02 0.000E+00

     total cpu time spent up to now is     3990.1 secs

     total energy              =    -629.67728008 Ry
     estimated scf accuracy    <          9.0E-09 Ry

     iteration # 12     ecut=    60.00 Ry     beta= 0.30
     Davidson diagonalization with overlap
     ethr =  1.37E-11,  avg # of iterations =  6.0

     negative rho (up, down):  1.497E-02 0.000E+00

     total cpu time spent up to now is     4016.1 secs

     total energy              =    -629.67728009 Ry
     estimated scf accuracy    <       0.00000002 Ry

     iteration # 13     ecut=    60.00 Ry     beta= 0.30
     Davidson diagonalization with overlap
     ethr =  1.37E-11,  avg # of iterations =  2.0

     negative rho (up, down):  1.497E-02 0.000E+00

     total cpu time spent up to now is     4035.3 secs

     total energy              =    -629.67728009 Ry
     estimated scf accuracy    <          6.0E-09 Ry

     iteration # 14     ecut=    60.00 Ry     beta= 0.30
     Davidson diagonalization with overlap
     ethr =  9.11E-12,  avg # of iterations =  5.0

     negative rho (up, down):  1.497E-02 0.000E+00

     total cpu time spent up to now is     4057.0 secs

     End of self-consistent calculation

          k = 0.0000 0.0000 0.0000 (151690 PWs)   bands (ev):

   -92.7688 -59.3325 -58.6237 -58.6234 -29.1755 -29.1720 -28.7820 -28.7789
   -28.7787 -15.7994 -14.4894 -14.2387 -14.2386 -14.1202 -12.6955 -12.2675
   -12.2673 -12.0609 -12.0608 -12.0240 -11.6325 -11.6177 -11.6176 -11.3893
   -11.3655 -11.3654 -11.0475 -11.0473 -10.5586  -7.6825  -7.6823  -6.3646
    -6.3641

     highest occupied level (ev):    -6.3641

!    total energy              =    -629.67728009 Ry
     total all-electron energy =     -3679.028767 Ry
     estimated scf accuracy    <          3.7E-10 Ry

     The total energy is the sum of the following terms:
     one-electron contribution =   -2265.69321931 Ry
     hartree contribution      =    1135.25637907 Ry
     xc contribution           =     -93.72411576 Ry
     ewald contribution        =     749.20457735 Ry
     one-center paw contrib.   =    -154.72090144 Ry

     convergence has been achieved in  14 iterations

     negative rho (up, down):  1.497E-02 0.000E+00

     Forces acting on atoms (cartesian axes, Ry/au):

     atom    1 type  2   force =    -0.00000972    0.00000000    0.00000000
     atom    2 type  1   force =    -0.00000655    0.00000000   -0.00139528
     atom    3 type  3   force =    -0.00002253    0.00000000    0.00080598
     atom    4 type  1   force =    -0.00000655    0.00000000    0.00139528
     atom    5 type  3   force =    -0.00002253    0.00000000   -0.00080598
     atom    6 type  1   force =     0.00173205    0.00000000    0.00000000
     atom    7 type  3   force =    -0.00300859    0.00000000    0.00000000
     atom    8 type  1   force =    -0.00080029    0.00136431    0.00000000
     atom    9 type  3   force =     0.00147249   -0.00253654    0.00000000
     atom   10 type  1   force =    -0.00080029   -0.00136431    0.00000000
     atom   11 type  3   force =     0.00147249    0.00253654    0.00000000

     Total force =     0.006281     Total SCF correction =     0.000052
     Energy error            =      7.2E-05 Ry
     Gradient error          =      3.0E-03 Ry/Bohr

     number of scf cycles    =   8
     number of bfgs steps    =   5

     energy             old  =    -629.6772081196 Ry
     energy             new  =    -629.6772800920 Ry

     CASE: energy            _new < energy            _old

     new trust radius        =       0.0046223623 bohr
     new conv_thr            =       0.0000000007 Ry


ATOMIC_POSITIONS (angstrom)
Fe               8.9500215484        8.9500000000        8.9500000000
C                8.9499267486        8.9500000000       10.7530485227
O                8.9499129825        8.9500000000       11.9058720886
C                8.9499267486        8.9500000000        7.1469514773
O                8.9499129825        8.9500000000        5.9941279114
C               10.7502628336        8.9500000000        8.9500000000
O               11.9057979266        8.9500000000        8.9500000000
C                8.0500189613       10.5091116205        8.9500000000
O                7.4721001533       11.5097525052        8.9500000000
C                8.0500189613        7.3908883795        8.9500000000
O                7.4721001533        6.3902474948        8.9500000000



     Writing config-only to output data dir /mnt/d/Research/Dr.Kulik_MIT/qe/workdirs/fe_co5_initial/fe_co5_initial.save/ :
     XML data file
     NEW-OLD atomic charge density approx. for the potential

     Check: negative core charge=   -0.000002

     negative rho (up, down):  1.497E-02 0.000E+00

     total cpu time spent up to now is     4077.3 secs

     Self-consistent Calculation

     iteration #  1     ecut=    60.00 Ry     beta= 0.30
     Davidson diagonalization with overlap
     ethr =  1.00E-06,  avg # of iterations =  6.0

     Threshold (ethr) on eigenvalues was too large:
     Diagonalizing with lowered threshold

     Davidson diagonalization with overlap
     ethr =  2.14E-08,  avg # of iterations =  8.0

     negative rho (up, down):  1.497E-02 0.000E+00

     total cpu time spent up to now is     4121.4 secs

     total energy              =    -629.67729232 Ry
     estimated scf accuracy    <       0.00001409 Ry

     iteration #  2     ecut=    60.00 Ry     beta= 0.30
     Davidson diagonalization with overlap
     ethr =  2.13E-08,  avg # of iterations =  2.0

     negative rho (up, down):  1.497E-02 0.000E+00

     total cpu time spent up to now is     4139.9 secs

     total energy              =    -629.67729152 Ry
     estimated scf accuracy    <       0.00000454 Ry

     iteration #  3     ecut=    60.00 Ry     beta= 0.30
     Davidson diagonalization with overlap
     ethr =  6.88E-09,  avg # of iterations =  4.0

     negative rho (up, down):  1.497E-02 0.000E+00

     total cpu time spent up to now is     4162.6 secs

     total energy              =    -629.67729220 Ry
     estimated scf accuracy    <       0.00000220 Ry

     iteration #  4     ecut=    60.00 Ry     beta= 0.30
     Davidson diagonalization with overlap
     ethr =  3.33E-09,  avg # of iterations =  2.0

     negative rho (up, down):  1.497E-02 0.000E+00

     total cpu time spent up to now is     4184.3 secs

     total energy              =    -629.67729179 Ry
     estimated scf accuracy    <       0.00000102 Ry

     iteration #  5     ecut=    60.00 Ry     beta= 0.30
     Davidson diagonalization with overlap
     ethr =  1.54E-09,  avg # of iterations =  6.0

     negative rho (up, down):  1.497E-02 0.000E+00

     total cpu time spent up to now is     4205.6 secs

     total energy              =    -629.67729109 Ry
     estimated scf accuracy    <       0.00000257 Ry

     iteration #  6     ecut=    60.00 Ry     beta= 0.30
     Davidson diagonalization with overlap
     ethr =  1.54E-09,  avg # of iterations =  6.0

     negative rho (up, down):  1.497E-02 0.000E+00

     total cpu time spent up to now is     4229.6 secs

     total energy              =    -629.67729182 Ry
     estimated scf accuracy    <       0.00000172 Ry

     iteration #  7     ecut=    60.00 Ry     beta= 0.30
     Davidson diagonalization with overlap
     ethr =  1.54E-09,  avg # of iterations =  5.0

     negative rho (up, down):  1.497E-02 0.000E+00

     total cpu time spent up to now is     4249.9 secs

     total energy              =    -629.67729213 Ry
     estimated scf accuracy    <          8.8E-09 Ry

     iteration #  8     ecut=    60.00 Ry     beta= 0.30
     Davidson diagonalization with overlap
     ethr =  1.33E-11,  avg # of iterations =  9.0

     negative rho (up, down):  1.497E-02 0.000E+00

     total cpu time spent up to now is     4278.5 secs

     total energy              =    -629.67729215 Ry
     estimated scf accuracy    <       0.00000008 Ry

     iteration #  9     ecut=    60.00 Ry     beta= 0.30
     Davidson diagonalization with overlap
     ethr =  1.33E-11,  avg # of iterations =  5.0

     negative rho (up, down):  1.497E-02 0.000E+00

     total cpu time spent up to now is     4302.4 secs

     total energy              =    -629.67729216 Ry
     estimated scf accuracy    <          4.5E-09 Ry

     iteration # 10     ecut=    60.00 Ry     beta= 0.30
     Davidson diagonalization with overlap
     ethr =  6.76E-12,  avg # of iterations =  5.0

     negative rho (up, down):  1.497E-02 0.000E+00

     total cpu time spent up to now is     4325.5 secs

     total energy              =    -629.67729216 Ry
     estimated scf accuracy    <          8.9E-09 Ry

     iteration # 11     ecut=    60.00 Ry     beta= 0.30
     Davidson diagonalization with overlap
     ethr =  6.76E-12,  avg # of iterations =  5.0

     negative rho (up, down):  1.497E-02 0.000E+00

     total cpu time spent up to now is     4345.5 secs

     total energy              =    -629.67729216 Ry
     estimated scf accuracy    <          1.9E-09 Ry

     iteration # 12     ecut=    60.00 Ry     beta= 0.30
     Davidson diagonalization with overlap
     ethr =  2.84E-12,  avg # of iterations =  5.0

     negative rho (up, down):  1.497E-02 0.000E+00

     total cpu time spent up to now is     4368.6 secs

     total energy              =    -629.67729216 Ry
     estimated scf accuracy    <          1.9E-09 Ry

     iteration # 13     ecut=    60.00 Ry     beta= 0.30
     Davidson diagonalization with overlap
     ethr =  2.84E-12,  avg # of iterations =  2.0

     negative rho (up, down):  1.497E-02 0.000E+00

     total cpu time spent up to now is     4387.8 secs

     End of self-consistent calculation

          k = 0.0000 0.0000 0.0000 (151690 PWs)   bands (ev):

   -92.7712 -59.3337 -58.6276 -58.6272 -29.1696 -29.1660 -28.7922 -28.7891
   -28.7890 -15.8028 -14.4899 -14.2376 -14.2376 -14.1196 -12.6953 -12.2687
   -12.2686 -12.0593 -12.0593 -12.0289 -11.6375 -11.6251 -11.6250 -11.3953
   -11.3678 -11.3677 -11.0496 -11.0493 -10.5590  -7.6859  -7.6857  -6.3672
    -6.3667

     highest occupied level (ev):    -6.3667

!    total energy              =    -629.67729216 Ry
     total all-electron energy =     -3679.028779 Ry
     estimated scf accuracy    <          5.9E-10 Ry

     The total energy is the sum of the following terms:
     one-electron contribution =   -2266.43518712 Ry
     hartree contribution      =    1135.62524689 Ry
     xc contribution           =     -93.73082173 Ry
     ewald contribution        =     749.58440868 Ry
     one-center paw contrib.   =    -154.72093888 Ry

     convergence has been achieved in  13 iterations

     negative rho (up, down):  1.497E-02 0.000E+00

     Forces acting on atoms (cartesian axes, Ry/au):

     atom    1 type  2   force =     0.00001615    0.00000000    0.00000000
     atom    2 type  1   force =    -0.00000676    0.00000000   -0.00010481
     atom    3 type  3   force =    -0.00002113    0.00000000   -0.00039348
     atom    4 type  1   force =    -0.00000676    0.00000000    0.00010481
     atom    5 type  3   force =    -0.00002113    0.00000000    0.00039348
     atom    6 type  1   force =    -0.00009614    0.00000000    0.00000000
     atom    7 type  3   force =     0.00029112    0.00000000    0.00000000
     atom    8 type  1   force =     0.00006473   -0.00014196    0.00000000
     atom    9 type  3   force =    -0.00014241    0.00026056    0.00000000
     atom   10 type  1   force =     0.00006473    0.00014196    0.00000000
     atom   11 type  3   force =    -0.00014241   -0.00026056    0.00000000

     Total force =     0.000807     Total SCF correction =     0.000040
     Energy error            =      1.2E-05 Ry
     Gradient error          =      3.9E-04 Ry/Bohr

     number of scf cycles    =   9
     number of bfgs steps    =   6

     energy             old  =    -629.6772800920 Ry
     energy             new  =    -629.6772921576 Ry

     CASE: energy            _new < energy            _old

     new trust radius        =       0.0004496471 bohr
     new conv_thr            =       0.0000000001 Ry


ATOMIC_POSITIONS (angstrom)
Fe               8.9500291107        8.9500000000        8.9500000000
C                8.9499240580        8.9500000000       10.7529434897
O                8.9499035487        8.9500000000       11.9057251318
C                8.9499240580        8.9500000000        7.1470565103
O                8.9499035487        8.9500000000        5.9942748682
C               10.7504570296        8.9500000000        8.9500000000
O               11.9060280876        8.9500000000        8.9500000000
C                8.0499310713       10.5092475836        8.9500000000
O                7.4719842081       11.5099602877        8.9500000000
C                8.0499310713        7.3907524164        8.9500000000
O                7.4719842081        6.3900397123        8.9500000000



     Writing config-only to output data dir /mnt/d/Research/Dr.Kulik_MIT/qe/workdirs/fe_co5_initial/fe_co5_initial.save/ :
     XML data file
     NEW-OLD atomic charge density approx. for the potential

     Check: negative core charge=   -0.000002

     negative rho (up, down):  1.497E-02 0.000E+00

     total cpu time spent up to now is     4410.1 secs

     Self-consistent Calculation

     iteration #  1     ecut=    60.00 Ry     beta= 0.30
     Davidson diagonalization with overlap
     ethr =  1.00E-06,  avg # of iterations =  2.0

     Threshold (ethr) on eigenvalues was too large:
     Diagonalizing with lowered threshold

     Davidson diagonalization with overlap
     ethr =  6.41E-10,  avg # of iterations =  8.0

     negative rho (up, down):  1.497E-02 0.000E+00

     total cpu time spent up to now is     4450.3 secs

     total energy              =    -629.67729251 Ry
     estimated scf accuracy    <       0.00000021 Ry

     iteration #  2     ecut=    60.00 Ry     beta= 0.30
     Davidson diagonalization with overlap
     ethr =  3.19E-10,  avg # of iterations =  5.0

     negative rho (up, down):  1.497E-02 0.000E+00

     total cpu time spent up to now is     4472.8 secs

     total energy              =    -629.67729250 Ry
     estimated scf accuracy    <       0.00000022 Ry

     iteration #  3     ecut=    60.00 Ry     beta= 0.30
     Davidson diagonalization with overlap
     ethr =  3.19E-10,  avg # of iterations =  5.0

     negative rho (up, down):  1.497E-02 0.000E+00

     total cpu time spent up to now is     4495.1 secs

     total energy              =    -629.67729251 Ry
     estimated scf accuracy    <       0.00000012 Ry

     iteration #  4     ecut=    60.00 Ry     beta= 0.30
     Davidson diagonalization with overlap
     ethr =  1.75E-10,  avg # of iterations =  2.0

     negative rho (up, down):  1.497E-02 0.000E+00

     total cpu time spent up to now is     4514.1 secs

     total energy              =    -629.67729251 Ry
     estimated scf accuracy    <       0.00000003 Ry

     iteration #  5     ecut=    60.00 Ry     beta= 0.30
     Davidson diagonalization with overlap
     ethr =  4.26E-11,  avg # of iterations =  5.0

     negative rho (up, down):  1.497E-02 0.000E+00

     total cpu time spent up to now is     4537.2 secs

     total energy              =    -629.67729252 Ry
     estimated scf accuracy    <       0.00000010 Ry

     iteration #  6     ecut=    60.00 Ry     beta= 0.30
     Davidson diagonalization with overlap
     ethr =  4.26E-11,  avg # of iterations =  5.0

     negative rho (up, down):  1.497E-02 0.000E+00

     total cpu time spent up to now is     4557.2 secs

     total energy              =    -629.67729252 Ry
     estimated scf accuracy    <          8.5E-09 Ry

     iteration #  7     ecut=    60.00 Ry     beta= 0.30
     Davidson diagonalization with overlap
     ethr =  1.29E-11,  avg # of iterations =  2.0

     negative rho (up, down):  1.497E-02 0.000E+00

     total cpu time spent up to now is     4578.3 secs

     total energy              =    -629.67729252 Ry
     estimated scf accuracy    <          5.3E-09 Ry

     iteration #  8     ecut=    60.00 Ry     beta= 0.30
     Davidson diagonalization with overlap
     ethr =  7.96E-12,  avg # of iterations =  5.0

     negative rho (up, down):  1.497E-02 0.000E+00

     total cpu time spent up to now is     4601.4 secs

     total energy              =    -629.67729252 Ry
     estimated scf accuracy    <          1.4E-09 Ry

     iteration #  9     ecut=    60.00 Ry     beta= 0.30
     Davidson diagonalization with overlap
     ethr =  2.17E-12,  avg # of iterations =  4.0

     negative rho (up, down):  1.497E-02 0.000E+00

     total cpu time spent up to now is     4621.3 secs

     total energy              =    -629.67729252 Ry
     estimated scf accuracy    <          1.9E-09 Ry

     iteration # 10     ecut=    60.00 Ry     beta= 0.30
     Davidson diagonalization with overlap
     ethr =  2.17E-12,  avg # of iterations =  1.0

     negative rho (up, down):  1.497E-02 0.000E+00

     total cpu time spent up to now is     4642.2 secs

     total energy              =    -629.67729252 Ry
     estimated scf accuracy    <          2.1E-09 Ry

     iteration # 11     ecut=    60.00 Ry     beta= 0.30
     Davidson diagonalization with overlap
     ethr =  2.17E-12,  avg # of iterations =  2.0

     negative rho (up, down):  1.497E-02 0.000E+00

     total cpu time spent up to now is     4661.2 secs

     total energy              =    -629.67729252 Ry
     estimated scf accuracy    <          2.2E-09 Ry

     iteration # 12     ecut=    60.00 Ry     beta= 0.30
     Davidson diagonalization with overlap
     ethr =  2.17E-12,  avg # of iterations =  1.0

     negative rho (up, down):  1.497E-02 0.000E+00

     total cpu time spent up to now is     4681.9 secs

     total energy              =    -629.67729252 Ry
     estimated scf accuracy    <          2.3E-09 Ry

     iteration # 13     ecut=    60.00 Ry     beta= 0.30
     Davidson diagonalization with overlap
     ethr =  2.17E-12,  avg # of iterations =  2.0

     negative rho (up, down):  1.497E-02 0.000E+00

     total cpu time spent up to now is     4703.5 secs

     total energy              =    -629.67729252 Ry
     estimated scf accuracy    <          1.4E-09 Ry

     iteration # 14     ecut=    60.00 Ry     beta= 0.30
     Davidson diagonalization with overlap
     ethr =  2.16E-12,  avg # of iterations =  1.0

     negative rho (up, down):  1.497E-02 0.000E+00

     total cpu time spent up to now is     4721.9 secs

     total energy              =    -629.67729252 Ry
     estimated scf accuracy    <          1.3E-09 Ry

     iteration # 15     ecut=    60.00 Ry     beta= 0.30
     Davidson diagonalization with overlap
     ethr =  1.94E-12,  avg # of iterations =  1.0

     negative rho (up, down):  1.497E-02 0.000E+00

     total cpu time spent up to now is     4742.9 secs

     total energy              =    -629.67729252 Ry
     estimated scf accuracy    <          1.3E-09 Ry

     iteration # 16     ecut=    60.00 Ry     beta= 0.30
     Davidson diagonalization with overlap
     ethr =  1.94E-12,  avg # of iterations =  2.0

     negative rho (up, down):  1.497E-02 0.000E+00

     total cpu time spent up to now is     4762.2 secs

     total energy              =    -629.67729252 Ry
     estimated scf accuracy    <          8.4E-10 Ry

     iteration # 17     ecut=    60.00 Ry     beta= 0.30
     Davidson diagonalization with overlap
     ethr =  1.28E-12,  avg # of iterations =  1.0

     negative rho (up, down):  1.497E-02 0.000E+00

     total cpu time spent up to now is     4783.0 secs

     total energy              =    -629.67729252 Ry
     estimated scf accuracy    <          8.0E-10 Ry

     iteration # 18     ecut=    60.00 Ry     beta= 0.30
     Davidson diagonalization with overlap
     ethr =  1.21E-12,  avg # of iterations =  3.0

     negative rho (up, down):  1.497E-02 0.000E+00

     total cpu time spent up to now is     4805.7 secs

     total energy              =    -629.67729252 Ry
     estimated scf accuracy    <          7.7E-10 Ry

     iteration # 19     ecut=    60.00 Ry     beta= 0.30
     Davidson diagonalization with overlap
     ethr =  1.16E-12,  avg # of iterations =  3.0

     negative rho (up, down):  1.497E-02 0.000E+00

     total cpu time spent up to now is     4825.1 secs

     total energy              =    -629.67729252 Ry
     estimated scf accuracy    <          1.4E-10 Ry

     iteration # 20     ecut=    60.00 Ry     beta= 0.30
     Davidson diagonalization with overlap
     ethr =  2.06E-13,  avg # of iterations =  5.0

     negative rho (up, down):  1.497E-02 0.000E+00

     total cpu time spent up to now is     4847.5 secs

     total energy              =    -629.67729252 Ry
     estimated scf accuracy    <          1.7E-10 Ry

     iteration # 21     ecut=    60.00 Ry     beta= 0.30
     Davidson diagonalization with overlap
     ethr =  2.06E-13,  avg # of iterations =  2.0

     negative rho (up, down):  1.497E-02 0.000E+00

     total cpu time spent up to now is     4866.4 secs

     total energy              =    -629.67729252 Ry
     estimated scf accuracy    <          1.6E-10 Ry

     iteration # 22     ecut=    60.00 Ry     beta= 0.30
     Davidson diagonalization with overlap
     ethr =  2.06E-13,  avg # of iterations =  2.0

     negative rho (up, down):  1.497E-02 0.000E+00

     total cpu time spent up to now is     4888.6 secs

     total energy              =    -629.67729252 Ry
     estimated scf accuracy    <          2.3E-10 Ry

     iteration # 23     ecut=    60.00 Ry     beta= 0.30
     Davidson diagonalization with overlap
     ethr =  2.06E-13,  avg # of iterations =  3.0

     negative rho (up, down):  1.497E-02 0.000E+00

     total cpu time spent up to now is     4910.6 secs

     total energy              =    -629.67729252 Ry
     estimated scf accuracy    <          1.7E-10 Ry

     iteration # 24     ecut=    60.00 Ry     beta= 0.30
     Davidson diagonalization with overlap
     ethr =  2.06E-13,  avg # of iterations =  2.0

     negative rho (up, down):  1.497E-02 0.000E+00

     total cpu time spent up to now is     4928.8 secs

     End of self-consistent calculation

          k = 0.0000 0.0000 0.0000 (151690 PWs)   bands (ev):

   -92.7710 -59.3337 -58.6272 -58.6268 -29.1701 -29.1664 -28.7916 -28.7886
   -28.7880 -15.8027 -14.4897 -14.2378 -14.2378 -14.1196 -12.6954 -12.2686
   -12.2686 -12.0595 -12.0595 -12.0285 -11.6373 -11.6248 -11.6243 -11.3949
   -11.3677 -11.3674 -11.0494 -11.0491 -10.5590  -7.6858  -7.6856  -6.3670
    -6.3666

     highest occupied level (ev):    -6.3666

!    total energy              =    -629.67729252 Ry
     total all-electron energy =     -3679.028779 Ry
     estimated scf accuracy    <          9.2E-11 Ry

     The total energy is the sum of the following terms:
     one-electron contribution =   -2266.39344665 Ry
     hartree contribution      =    1135.60462565 Ry
     xc contribution           =     -93.73046689 Ry
     ewald contribution        =     749.56293082 Ry
     one-center paw contrib.   =    -154.72093545 Ry

     convergence has been achieved in  24 iterations

     negative rho (up, down):  1.497E-02 0.000E+00

     Forces acting on atoms (cartesian axes, Ry/au):

     atom    1 type  2   force =     0.00001157    0.00000000    0.00000000
     atom    2 type  1   force =    -0.00000395    0.00000000   -0.00018170
     atom    3 type  3   force =    -0.00002179    0.00000000   -0.00020730
     atom    4 type  1   force =    -0.00000395    0.00000000    0.00018170
     atom    5 type  3   force =    -0.00002179    0.00000000    0.00020730
     atom    6 type  1   force =    -0.00008403    0.00000000    0.00000000
     atom    7 type  3   force =     0.00012361    0.00000000    0.00000000
     atom    8 type  1   force =    -0.00001638    0.00001343    0.00000000
     atom    9 type  3   force =     0.00001654   -0.00002043    0.00000000
     atom   10 type  1   force =    -0.00001638   -0.00001343    0.00000000
     atom   11 type  3   force =     0.00001654    0.00002043    0.00000000

     Total force =     0.000422     Total SCF correction =     0.000017
     Energy error            =      3.6E-07 Ry
     Gradient error          =      2.1E-04 Ry/Bohr

     number of scf cycles    =  10
     number of bfgs steps    =   7

     energy             old  =    -629.6772921576 Ry
     energy             new  =    -629.6772925203 Ry

     CASE: energy            _new < energy            _old

     new trust radius        =       0.0004687221 bohr
     new conv_thr            =            1.0E-10 Ry


ATOMIC_POSITIONS (angstrom)
Fe               8.9500426657        8.9500000000        8.9500000000
C                8.9499193493        8.9500000000       10.7527298915
O                8.9498801636        8.9500000000       11.9054781997
C                8.9499193493        8.9500000000        7.1472701085
O                8.9498801636        8.9500000000        5.9945218003
C               10.7505017614        8.9500000000        8.9500000000
O               11.9062343246        8.9500000000        8.9500000000
C                8.0498637036       10.5093432562        8.9500000000
O                7.4719474076       11.5100345848        8.9500000000
C                8.0498637036        7.3906567438        8.9500000000
O                7.4719474076        6.3899654152        8.9500000000



     Writing config-only to output data dir /mnt/d/Research/Dr.Kulik_MIT/qe/workdirs/fe_co5_initial/fe_co5_initial.save/ :
     XML data file
     NEW-OLD atomic charge density approx. for the potential

     Check: negative core charge=   -0.000002

     negative rho (up, down):  1.497E-02 0.000E+00

     total cpu time spent up to now is     4951.5 secs

     Self-consistent Calculation

     iteration #  1     ecut=    60.00 Ry     beta= 0.30
     Davidson diagonalization with overlap
     ethr =  1.00E-06,  avg # of iterations =  2.0

     Threshold (ethr) on eigenvalues was too large:
     Diagonalizing with lowered threshold

     Davidson diagonalization with overlap
     ethr =  5.41E-10,  avg # of iterations =  8.0

     negative rho (up, down):  1.497E-02 0.000E+00

     total cpu time spent up to now is     4991.1 secs

     total energy              =    -629.67729267 Ry
     estimated scf accuracy    <       0.00000021 Ry

     iteration #  2     ecut=    60.00 Ry     beta= 0.30
     Davidson diagonalization with overlap
     ethr =  3.16E-10,  avg # of iterations =  5.0

     negative rho (up, down):  1.497E-02 0.000E+00

     total cpu time spent up to now is     5013.4 secs

     total energy              =    -629.67729266 Ry
     estimated scf accuracy    <       0.00000023 Ry

     iteration #  3     ecut=    60.00 Ry     beta= 0.30
     Davidson diagonalization with overlap
     ethr =  3.16E-10,  avg # of iterations =  5.0

     negative rho (up, down):  1.497E-02 0.000E+00

     total cpu time spent up to now is     5032.6 secs

     total energy              =    -629.67729267 Ry
     estimated scf accuracy    <       0.00000011 Ry

     iteration #  4     ecut=    60.00 Ry     beta= 0.30
     Davidson diagonalization with overlap
     ethr =  1.68E-10,  avg # of iterations =  5.0

     negative rho (up, down):  1.497E-02 0.000E+00

     total cpu time spent up to now is     5055.7 secs

     total energy              =    -629.67729268 Ry
     estimated scf accuracy    <       0.00000001 Ry

     iteration #  5     ecut=    60.00 Ry     beta= 0.30
     Davidson diagonalization with overlap
     ethr =  1.81E-11,  avg # of iterations =  5.0

     negative rho (up, down):  1.497E-02 0.000E+00

     total cpu time spent up to now is     5076.6 secs

     total energy              =    -629.67729268 Ry
     estimated scf accuracy    <       0.00000002 Ry

     iteration #  6     ecut=    60.00 Ry     beta= 0.30
     Davidson diagonalization with overlap
     ethr =  1.81E-11,  avg # of iterations =  5.0

     negative rho (up, down):  1.497E-02 0.000E+00

     total cpu time spent up to now is     5099.5 secs

     total energy              =    -629.67729268 Ry
     estimated scf accuracy    <          2.6E-09 Ry

     iteration #  7     ecut=    60.00 Ry     beta= 0.30
     Davidson diagonalization with overlap
     ethr =  3.91E-12,  avg # of iterations =  4.0

     negative rho (up, down):  1.497E-02 0.000E+00

     total cpu time spent up to now is     5121.7 secs

     total energy              =    -629.67729268 Ry
     estimated scf accuracy    <          2.3E-09 Ry

     iteration #  8     ecut=    60.00 Ry     beta= 0.30
     Davidson diagonalization with overlap
     ethr =  3.52E-12,  avg # of iterations =  5.0

     negative rho (up, down):  1.497E-02 0.000E+00

     total cpu time spent up to now is     5141.9 secs

     total energy              =    -629.67729268 Ry
     estimated scf accuracy    <          3.3E-10 Ry

     iteration #  9     ecut=    60.00 Ry     beta= 0.30
     Davidson diagonalization with overlap
     ethr =  5.04E-13,  avg # of iterations =  5.0

     negative rho (up, down):  1.497E-02 0.000E+00

     total cpu time spent up to now is     5164.9 secs

     total energy              =    -629.67729268 Ry
     estimated scf accuracy    <          2.8E-10 Ry

     iteration # 10     ecut=    60.00 Ry     beta= 0.30
     Davidson diagonalization with overlap
     ethr =  4.22E-13,  avg # of iterations =  2.0

     negative rho (up, down):  1.497E-02 0.000E+00

     total cpu time spent up to now is     5186.8 secs

     total energy              =    -629.67729268 Ry
     estimated scf accuracy    <          1.4E-10 Ry

     iteration # 11     ecut=    60.00 Ry     beta= 0.30
     Davidson diagonalization with overlap
     ethr =  2.06E-13,  avg # of iterations =  6.0

     negative rho (up, down):  1.497E-02 0.000E+00

     total cpu time spent up to now is     5209.5 secs

     total energy              =    -629.67729268 Ry
     estimated scf accuracy    <          5.7E-10 Ry

     iteration # 12     ecut=    60.00 Ry     beta= 0.30
     Davidson diagonalization with overlap
     ethr =  2.06E-13,  avg # of iterations =  2.0

     negative rho (up, down):  1.497E-02 0.000E+00

     total cpu time spent up to now is     5231.0 secs

     total energy              =    -629.67729268 Ry
     estimated scf accuracy    <          2.9E-10 Ry

     iteration # 13     ecut=    60.00 Ry     beta= 0.30
     Davidson diagonalization with overlap
     ethr =  2.06E-13,  avg # of iterations =  1.0

     negative rho (up, down):  1.497E-02 0.000E+00

     total cpu time spent up to now is     5249.1 secs

     total energy              =    -629.67729268 Ry
     estimated scf accuracy    <          2.4E-10 Ry

     iteration # 14     ecut=    60.00 Ry     beta= 0.30
     Davidson diagonalization with overlap
     ethr =  2.06E-13,  avg # of iterations =  1.0

     negative rho (up, down):  1.497E-02 0.000E+00

     total cpu time spent up to now is     5271.3 secs

     total energy              =    -629.67729268 Ry
     estimated scf accuracy    <          2.0E-10 Ry

     iteration # 15     ecut=    60.00 Ry     beta= 0.30
     Davidson diagonalization with overlap
     ethr =  2.06E-13,  avg # of iterations =  1.0

     negative rho (up, down):  1.497E-02 0.000E+00

     total cpu time spent up to now is     5292.5 secs

     total energy              =    -629.67729268 Ry
     estimated scf accuracy    <          1.9E-10 Ry

     iteration # 16     ecut=    60.00 Ry     beta= 0.30
     Davidson diagonalization with overlap
     ethr =  2.06E-13,  avg # of iterations =  2.0

     negative rho (up, down):  1.497E-02 0.000E+00

     total cpu time spent up to now is     5310.8 secs

     End of self-consistent calculation

          k = 0.0000 0.0000 0.0000 (151690 PWs)   bands (ev):

   -92.7710 -59.3340 -58.6270 -58.6268 -29.1702 -29.1665 -28.7918 -28.7892
   -28.7867 -15.8030 -14.4893 -14.2382 -14.2380 -14.1195 -12.6956 -12.2690
   -12.2685 -12.0597 -12.0595 -12.0283 -11.6375 -11.6250 -11.6239 -11.3949
   -11.3680 -11.3670 -11.0491 -11.0491 -10.5589  -7.6860  -7.6859  -6.3670
    -6.3666

     highest occupied level (ev):    -6.3666

!    total energy              =    -629.67729268 Ry
     total all-electron energy =     -3679.028779 Ry
     estimated scf accuracy    <          9.8E-11 Ry

     The total energy is the sum of the following terms:
     one-electron contribution =   -2266.40833471 Ry
     hartree contribution      =    1135.61227461 Ry
     xc contribution           =     -93.73055114 Ry
     ewald contribution        =     749.57025734 Ry
     one-center paw contrib.   =    -154.72093878 Ry

     convergence has been achieved in  16 iterations

     negative rho (up, down):  1.497E-02 0.000E+00

     Forces acting on atoms (cartesian axes, Ry/au):

     atom    1 type  2   force =    -0.00002243    0.00000000    0.00000000
     atom    2 type  1   force =    -0.00000069    0.00000000   -0.00014849
     atom    3 type  3   force =    -0.00002207    0.00000000   -0.00004522
     atom    4 type  1   force =    -0.00000069    0.00000000    0.00014849
     atom    5 type  3   force =    -0.00002207    0.00000000    0.00004522
     atom    6 type  1   force =     0.00048827    0.00000000    0.00000000
     atom    7 type  3   force =    -0.00051984    0.00000000    0.00000000
     atom    8 type  1   force =     0.00008486   -0.00016104    0.00000000
     atom    9 type  3   force =    -0.00003510    0.00006906    0.00000000
     atom   10 type  1   force =     0.00008486    0.00016104    0.00000000
     atom   11 type  3   force =    -0.00003510   -0.00006906    0.00000000

     Total force =     0.000798     Total SCF correction =     0.000022
     Energy error            =      1.6E-07 Ry
     Gradient error          =      5.2E-04 Ry/Bohr

     number of scf cycles    =  11
     number of bfgs steps    =   8

     energy             old  =    -629.6772925203 Ry
     energy             new  =    -629.6772926837 Ry

     CASE: energy            _new < energy            _old

     new trust radius        =       0.0006606854 bohr
     new conv_thr            =            1.0E-10 Ry


ATOMIC_POSITIONS (angstrom)
Fe               8.9500492408        8.9500000000        8.9500000000
C                8.9499128224        8.9500000000       10.7524154029
O                8.9498400660        8.9500000000       11.9051308870
C                8.9499128224        8.9500000000        7.1475845971
O                8.9498400660        8.9500000000        5.9948691130
C               10.7506618460        8.9500000000        8.9500000000
O               11.9061823140        8.9500000000        8.9500000000
C                8.0498787646       10.5092854529        8.9500000000
O                7.4719216465       11.5100961199        8.9500000000
C                8.0498787646        7.3907145471        8.9500000000
O                7.4719216465        6.3899038801        8.9500000000



     Writing config-only to output data dir /mnt/d/Research/Dr.Kulik_MIT/qe/workdirs/fe_co5_initial/fe_co5_initial.save/ :
     XML data file
     NEW-OLD atomic charge density approx. for the potential

     Check: negative core charge=   -0.000002

     negative rho (up, down):  1.497E-02 0.000E+00

     total cpu time spent up to now is     5333.6 secs

     Self-consistent Calculation

     iteration #  1     ecut=    60.00 Ry     beta= 0.30
     Davidson diagonalization with overlap
     ethr =  1.00E-06,  avg # of iterations =  2.0

     Threshold (ethr) on eigenvalues was too large:
     Diagonalizing with lowered threshold

     Davidson diagonalization with overlap
     ethr =  9.12E-10,  avg # of iterations =  8.0

     negative rho (up, down):  1.497E-02 0.000E+00

     total cpu time spent up to now is     5372.6 secs

     total energy              =    -629.67729271 Ry
     estimated scf accuracy    <       0.00000029 Ry

     iteration #  2     ecut=    60.00 Ry     beta= 0.30
     Davidson diagonalization with overlap
     ethr =  4.45E-10,  avg # of iterations =  2.0

     negative rho (up, down):  1.496E-02 0.000E+00

     total cpu time spent up to now is     5393.8 secs

     total energy              =    -629.67729268 Ry
     estimated scf accuracy    <       0.00000011 Ry

     iteration #  3     ecut=    60.00 Ry     beta= 0.30
     Davidson diagonalization with overlap
     ethr =  1.63E-10,  avg # of iterations =  5.0

     negative rho (up, down):  1.496E-02 0.000E+00

     total cpu time spent up to now is     5414.5 secs

     total energy              =    -629.67729271 Ry
     estimated scf accuracy    <       0.00000004 Ry

     iteration #  4     ecut=    60.00 Ry     beta= 0.30
     Davidson diagonalization with overlap
     ethr =  6.35E-11,  avg # of iterations =  2.0

     negative rho (up, down):  1.496E-02 0.000E+00

     total cpu time spent up to now is     5436.1 secs

     total energy              =    -629.67729270 Ry
     estimated scf accuracy    <       0.00000002 Ry

     iteration #  5     ecut=    60.00 Ry     beta= 0.30
     Davidson diagonalization with overlap
     ethr =  3.30E-11,  avg # of iterations =  6.0

     negative rho (up, down):  1.496E-02 0.000E+00

     total cpu time spent up to now is     5457.2 secs

     total energy              =    -629.67729270 Ry
     estimated scf accuracy    <       0.00000004 Ry

     iteration #  6     ecut=    60.00 Ry     beta= 0.30
     Davidson diagonalization with overlap
     ethr =  3.30E-11,  avg # of iterations =  5.0

     negative rho (up, down):  1.496E-02 0.000E+00

     total cpu time spent up to now is     5481.2 secs

     total energy              =    -629.67729271 Ry
     estimated scf accuracy    <       0.00000002 Ry

     iteration #  7     ecut=    60.00 Ry     beta= 0.30
     Davidson diagonalization with overlap
     ethr =  3.07E-11,  avg # of iterations =  2.0

     negative rho (up, down):  1.496E-02 0.000E+00

     total cpu time spent up to now is     5502.7 secs

     total energy              =    -629.67729271 Ry
     estimated scf accuracy    <          7.0E-09 Ry

     iteration #  8     ecut=    60.00 Ry     beta= 0.30
     Davidson diagonalization with overlap
     ethr =  1.06E-11,  avg # of iterations =  5.0

     negative rho (up, down):  1.496E-02 0.000E+00

     total cpu time spent up to now is     5523.6 secs

     total energy              =    -629.67729271 Ry
     estimated scf accuracy    <          1.4E-09 Ry

     iteration #  9     ecut=    60.00 Ry     beta= 0.30
     Davidson diagonalization with overlap
     ethr =  2.11E-12,  avg # of iterations =  4.0

     negative rho (up, down):  1.496E-02 0.000E+00

     total cpu time spent up to now is     5546.0 secs

     total energy              =    -629.67729271 Ry
     estimated scf accuracy    <          1.9E-09 Ry

     iteration # 10     ecut=    60.00 Ry     beta= 0.30
     Davidson diagonalization with overlap
     ethr =  2.11E-12,  avg # of iterations =  1.0

     negative rho (up, down):  1.496E-02 0.000E+00

     total cpu time spent up to now is     5567.3 secs

     total energy              =    -629.67729271 Ry
     estimated scf accuracy    <          1.6E-09 Ry

     iteration # 11     ecut=    60.00 Ry     beta= 0.30
     Davidson diagonalization with overlap
     ethr =  2.11E-12,  avg # of iterations =  5.0

     negative rho (up, down):  1.496E-02 0.000E+00

     total cpu time spent up to now is     5588.2 secs

     total energy              =    -629.67729271 Ry
     estimated scf accuracy    <          1.5E-10 Ry

     iteration # 12     ecut=    60.00 Ry     beta= 0.30
     Davidson diagonalization with overlap
     ethr =  2.31E-13,  avg # of iterations =  5.0

     negative rho (up, down):  1.496E-02 0.000E+00

     total cpu time spent up to now is     5610.2 secs

     End of self-consistent calculation

          k = 0.0000 0.0000 0.0000 (151690 PWs)   bands (ev):

   -92.7713 -59.3345 -58.6274 -58.6270 -29.1701 -29.1664 -28.7925 -28.7885
   -28.7870 -15.8038 -14.4889 -14.2386 -14.2384 -14.1195 -12.6959 -12.2693
   -12.2690 -12.0598 -12.0597 -12.0283 -11.6382 -11.6254 -11.6239 -11.3951
   -11.3681 -11.3668 -11.0493 -11.0490 -10.5587  -7.6867  -7.6865  -6.3672
    -6.3671

     highest occupied level (ev):    -6.3671

!    total energy              =    -629.67729271 Ry
     total all-electron energy =     -3679.028779 Ry
     estimated scf accuracy    <          7.1E-11 Ry

     The total energy is the sum of the following terms:
     one-electron contribution =   -2266.47493690 Ry
     hartree contribution      =    1135.64529257 Ry
     xc contribution           =     -93.73101178 Ry
     ewald contribution        =     749.60430923 Ry
     one-center paw contrib.   =    -154.72094584 Ry

     convergence has been achieved in  12 iterations

     negative rho (up, down):  1.496E-02 0.000E+00

     Forces acting on atoms (cartesian axes, Ry/au):

     atom    1 type  2   force =     0.00002406    0.00000000    0.00000000
     atom    2 type  1   force =     0.00000058    0.00000000   -0.00003803
     atom    3 type  3   force =    -0.00001949    0.00000000    0.00013422
     atom    4 type  1   force =     0.00000058    0.00000000    0.00003803
     atom    5 type  3   force =    -0.00001949    0.00000000   -0.00013422
     atom    6 type  1   force =    -0.00038066    0.00000000    0.00000000
     atom    7 type  3   force =     0.00027364    0.00000000    0.00000000
     atom    8 type  1   force =    -0.00013919    0.00027605    0.00000000
     atom    9 type  3   force =     0.00019958   -0.00035535    0.00000000
     atom   10 type  1   force =    -0.00013919   -0.00027605    0.00000000
     atom   11 type  3   force =     0.00019958    0.00035535    0.00000000

     Total force =     0.000885     Total SCF correction =     0.000043
     Energy error            =      2.8E-08 Ry
     Gradient error          =      3.8E-04 Ry/Bohr

     number of scf cycles    =  12
     number of bfgs steps    =   9

     energy             old  =    -629.6772926837 Ry
     energy             new  =    -629.6772927114 Ry

     CASE: energy            _new < energy            _old

     new trust radius        =       0.0002830384 bohr
     new conv_thr            =            1.0E-10 Ry


ATOMIC_POSITIONS (angstrom)
Fe               8.9500477695        8.9500000000        8.9500000000
C                8.9499150679        8.9500000000       10.7525306999
O                8.9498459335        8.9500000000       11.9052719718
C                8.9499150679        8.9500000000        7.1474693001
O                8.9498459335        8.9500000000        5.9947280282
C               10.7505120686        8.9500000000        8.9500000000
O               11.9061105056        8.9500000000        8.9500000000
C                8.0499146133       10.5092424523        8.9500000000
O                7.4719892134       11.5099717259        8.9500000000
C                8.0499146133        7.3907575477        8.9500000000
O                7.4719892134        6.3900282741        8.9500000000



     Writing config-only to output data dir /mnt/d/Research/Dr.Kulik_MIT/qe/workdirs/fe_co5_initial/fe_co5_initial.save/ :
     XML data file
     NEW-OLD atomic charge density approx. for the potential

     Check: negative core charge=   -0.000002

     negative rho (up, down):  1.496E-02 0.000E+00

     total cpu time spent up to now is     5630.3 secs

     Self-consistent Calculation

     iteration #  1     ecut=    60.00 Ry     beta= 0.30
     Davidson diagonalization with overlap
     ethr =  1.00E-06,  avg # of iterations =  2.0

     Threshold (ethr) on eigenvalues was too large:
     Diagonalizing with lowered threshold

     Davidson diagonalization with overlap
     ethr =  2.51E-10,  avg # of iterations =  8.0

     negative rho (up, down):  1.496E-02 0.000E+00

     total cpu time spent up to now is     5672.1 secs

     total energy              =    -629.67729286 Ry
     estimated scf accuracy    <       0.00000009 Ry

     iteration #  2     ecut=    60.00 Ry     beta= 0.30
     Davidson diagonalization with overlap
     ethr =  1.42E-10,  avg # of iterations =  4.0

     negative rho (up, down):  1.496E-02 0.000E+00

     total cpu time spent up to now is     5691.5 secs

     total energy              =    -629.67729285 Ry
     estimated scf accuracy    <       0.00000003 Ry

     iteration #  3     ecut=    60.00 Ry     beta= 0.30
     Davidson diagonalization with overlap
     ethr =  5.04E-11,  avg # of iterations =  5.0

     negative rho (up, down):  1.496E-02 0.000E+00

     total cpu time spent up to now is     5714.8 secs

     total energy              =    -629.67729286 Ry
     estimated scf accuracy    <       0.00000005 Ry

     iteration #  4     ecut=    60.00 Ry     beta= 0.30
     Davidson diagonalization with overlap
     ethr =  5.04E-11,  avg # of iterations =  5.0

     negative rho (up, down):  1.496E-02 0.000E+00

     total cpu time spent up to now is     5737.2 secs

     total energy              =    -629.67729286 Ry
     estimated scf accuracy    <       0.00000001 Ry

     iteration #  5     ecut=    60.00 Ry     beta= 0.30
     Davidson diagonalization with overlap
     ethr =  1.57E-11,  avg # of iterations =  5.0

     negative rho (up, down):  1.496E-02 0.000E+00

     total cpu time spent up to now is     5757.0 secs

     total energy              =    -629.67729286 Ry
     estimated scf accuracy    <          2.6E-09 Ry

     iteration #  6     ecut=    60.00 Ry     beta= 0.30
     Davidson diagonalization with overlap
     ethr =  3.99E-12,  avg # of iterations =  6.0

     negative rho (up, down):  1.496E-02 0.000E+00

     total cpu time spent up to now is     5780.6 secs

     total energy              =    -629.67729286 Ry
     estimated scf accuracy    <          3.5E-09 Ry

     iteration #  7     ecut=    60.00 Ry     beta= 0.30
     Davidson diagonalization with overlap
     ethr =  3.99E-12,  avg # of iterations =  2.0

     negative rho (up, down):  1.496E-02 0.000E+00

     total cpu time spent up to now is     5800.3 secs

     total energy              =    -629.67729286 Ry
     estimated scf accuracy    <          1.3E-09 Ry

     iteration #  8     ecut=    60.00 Ry     beta= 0.30
     Davidson diagonalization with overlap
     ethr =  2.04E-12,  avg # of iterations =  6.0

     negative rho (up, down):  1.496E-02 0.000E+00

     total cpu time spent up to now is     5825.3 secs

     total energy              =    -629.67729286 Ry
     estimated scf accuracy    <          4.6E-09 Ry

     iteration #  9     ecut=    60.00 Ry     beta= 0.30
     Davidson diagonalization with overlap
     ethr =  2.04E-12,  avg # of iterations =  2.0

     negative rho (up, down):  1.496E-02 0.000E+00

     total cpu time spent up to now is     5846.8 secs

     total energy              =    -629.67729286 Ry
     estimated scf accuracy    <          2.0E-09 Ry

     iteration # 10     ecut=    60.00 Ry     beta= 0.30
     Davidson diagonalization with overlap
     ethr =  2.04E-12,  avg # of iterations =  5.0

     negative rho (up, down):  1.496E-02 0.000E+00

     total cpu time spent up to now is     5867.7 secs

     total energy              =    -629.67729286 Ry
     estimated scf accuracy    <          4.9E-10 Ry

     iteration # 11     ecut=    60.00 Ry     beta= 0.30
     Davidson diagonalization with overlap
     ethr =  7.43E-13,  avg # of iterations =  2.0

     negative rho (up, down):  1.496E-02 0.000E+00

     total cpu time spent up to now is     5889.2 secs

     total energy              =    -629.67729286 Ry
     estimated scf accuracy    <          2.9E-10 Ry

     iteration # 12     ecut=    60.00 Ry     beta= 0.30
     Davidson diagonalization with overlap
     ethr =  4.42E-13,  avg # of iterations =  5.0

     negative rho (up, down):  1.496E-02 0.000E+00

     total cpu time spent up to now is     5912.0 secs

     total energy              =    -629.67729286 Ry
     estimated scf accuracy    <          1.2E-10 Ry

     iteration # 13     ecut=    60.00 Ry     beta= 0.30
     Davidson diagonalization with overlap
     ethr =  1.83E-13,  avg # of iterations =  2.0

     negative rho (up, down):  1.496E-02 0.000E+00

     total cpu time spent up to now is     5930.4 secs

     End of self-consistent calculation

          k = 0.0000 0.0000 0.0000 (151690 PWs)   bands (ev):

   -92.7714 -59.3344 -58.6275 -58.6271 -29.1699 -29.1663 -28.7917 -28.7887
   -28.7884 -15.8037 -14.4891 -14.2383 -14.2383 -14.1195 -12.6958 -12.2691
   -12.2690 -12.0597 -12.0597 -12.0285 -11.6382 -11.6249 -11.6247 -11.3952
   -11.3676 -11.3674 -11.0493 -11.0491 -10.5588  -7.6867  -7.6864  -6.3673
    -6.3671

     highest occupied level (ev):    -6.3671

!    total energy              =    -629.67729286 Ry
     total all-electron energy =     -3679.028780 Ry
     estimated scf accuracy    <          8.7E-11 Ry

     The total energy is the sum of the following terms:
     one-electron contribution =   -2266.48163850 Ry
     hartree contribution      =    1135.64870763 Ry
     xc contribution           =     -93.73110574 Ry
     ewald contribution        =     749.60768950 Ry
     one-center paw contrib.   =    -154.72094575 Ry

     convergence has been achieved in  13 iterations

     negative rho (up, down):  1.496E-02 0.000E+00

     Forces acting on atoms (cartesian axes, Ry/au):

     atom    1 type  2   force =     0.00001954    0.00000000    0.00000000
     atom    2 type  1   force =    -0.00000300    0.00000000   -0.00002882
     atom    3 type  3   force =    -0.00002081    0.00000000    0.00001258
     atom    4 type  1   force =    -0.00000300    0.00000000    0.00002882
     atom    5 type  3   force =    -0.00002081    0.00000000   -0.00001258
     atom    6 type  1   force =    -0.00000176    0.00000000    0.00000000
     atom    7 type  3   force =    -0.00000534    0.00000000    0.00000000
     atom    8 type  1   force =    -0.00001063    0.00002712    0.00000000
     atom    9 type  3   force =     0.00002822   -0.00005137    0.00000000
     atom   10 type  1   force =    -0.00001063   -0.00002712    0.00000000
     atom   11 type  3   force =     0.00002822    0.00005137    0.00000000

     Total force =     0.000109     Total SCF correction =     0.000016
     SCF correction compared to forces is large: reduce conv_thr to get better values
     Energy error            =      1.5E-07 Ry
     Gradient error          =      5.1E-05 Ry/Bohr

     bfgs converged in  13 scf cycles and  10 bfgs steps
     (criteria: energy <  1.0E-05 Ry, force <  1.0E-04 Ry/Bohr)

     End of BFGS Geometry Optimization

     Final energy             =    -629.6772928617 Ry

     File /mnt/d/Research/Dr.Kulik_MIT/qe/workdirs/fe_co5_initial/fe_co5_initial.bfgs deleted, as requested
Begin final coordinates

ATOMIC_POSITIONS (angstrom)
Fe               8.9500477695        8.9500000000        8.9500000000
C                8.9499150679        8.9500000000       10.7525306999
O                8.9498459335        8.9500000000       11.9052719718
C                8.9499150679        8.9500000000        7.1474693001
O                8.9498459335        8.9500000000        5.9947280282
C               10.7505120686        8.9500000000        8.9500000000
O               11.9061105056        8.9500000000        8.9500000000
C                8.0499146133       10.5092424523        8.9500000000
O                7.4719892134       11.5099717259        8.9500000000
C                8.0499146133        7.3907575477        8.9500000000
O                7.4719892134        6.3900282741        8.9500000000
End final coordinates



     Writing all to output data dir /mnt/d/Research/Dr.Kulik_MIT/qe/workdirs/fe_co5_initial/fe_co5_initial.save/ :
     XML data file, charge density, pseudopotentials, collected wavefunctions

     init_run     :      8.96s CPU     15.90s WALL (       1 calls)
     electrons    :   3535.75s CPU   5657.45s WALL (      13 calls)
     update_pot   :     23.32s CPU     40.81s WALL (      12 calls)
     forces       :     76.12s CPU    145.85s WALL (      13 calls)

     Called by init_run:
     wfcinit      :      1.68s CPU      1.84s WALL (       1 calls)
     potinit      :      2.27s CPU      3.40s WALL (       1 calls)
     hinit0       :      1.45s CPU      1.78s WALL (       1 calls)

     Called by electrons:
     c_bands      :    963.90s CPU   1156.27s WALL (     260 calls)
     sum_band     :   1397.37s CPU   2151.46s WALL (     260 calls)
     v_of_rho     :    363.88s CPU    594.39s WALL (     267 calls)
     newd         :    663.36s CPU   1609.96s WALL (     267 calls)
     PAW_pot      :     47.84s CPU     48.22s WALL (     279 calls)
     mix_rho      :     89.15s CPU    114.15s WALL (     260 calls)

     Called by c_bands:
     init_us_2    :     17.58s CPU     18.36s WALL (     546 calls)
     regterg      :    942.01s CPU   1131.80s WALL (     260 calls)

     Called by *egterg:
     rdiaghg      :      2.22s CPU      4.03s WALL (    1304 calls)
     h_psi        :    808.82s CPU    927.16s WALL (    1323 calls)
     s_psi        :     20.87s CPU     20.23s WALL (    1323 calls)
     g_psi        :      2.38s CPU      2.31s WALL (    1062 calls)

     Called by h_psi:
     h_psi:calbec :     29.12s CPU     47.38s WALL (    1323 calls)
     vloc_psi     :    754.19s CPU    852.44s WALL (    1323 calls)
     add_vuspsi   :     21.53s CPU     23.22s WALL (    1323 calls)

     General routines
     calbec       :     39.18s CPU     66.93s WALL (    1647 calls)
     fft          :    309.19s CPU    509.82s WALL (    3059 calls)
     ffts         :     23.41s CPU     36.29s WALL (     527 calls)
     fftw         :    591.45s CPU    704.83s WALL (   31010 calls)
     interpolate  :     46.60s CPU     65.95s WALL (     267 calls)

     Parallel routines

     PWSCF        :      1h 1m CPU      1h39m WALL


   This run was terminated on:   7: 7:44  29Jun2026            

=------------------------------------------------------------------------------=
   JOB DONE.
=------------------------------------------------------------------------------=
