
     Program PWSCF v.7.4.1 starts on 13Jul2026 at 23:45:44 

     This program is part of the open-source Quantum ESPRESSO suite
     for quantum simulation of materials; please cite
         "P. Giannozzi et al., J. Phys.:Condens. Matter 21 395502 (2009);
         "P. Giannozzi et al., J. Phys.:Condens. Matter 29 465901 (2017);
         "P. Giannozzi et al., J. Chem. Phys. 152 154105 (2020);
          URL http://www.quantum-espresso.org", 
     in publications or presentations arising from this work. More details at
     http://www.quantum-espresso.org/quote

     Parallel version (MPI), running on     4 processors

     MPI processes distributed on     1 nodes
     14531 MiB available memory on the printing compute node when the environment starts

     Reading input from /tmp/ferrocene_pbed3_run.in

     Current dimensions of program PWSCF are:
     Max number of different atomic species (ntypx) = 10
     Max number of k-points (npk) =  40000
     Max angular momentum in pseudopotentials (lmaxx) =  4
     file C.pbe-n-kjpaw_psl.1.0.0.UPF: wavefunction(s)  2S 2P renormalized
     file Fe.pbe-spn-kjpaw_psl.0.2.1.UPF: wavefunction(s)  3D renormalized

     gamma-point specific algorithms are used

     R & G space division:  proc/nbgrp/npool/nimage =       4
     Subspace diagonalization in iterative solution of the eigenvalue problem:
     a serial algorithm will be used


     Parallelization info
     --------------------
     sticks:   dense  smooth     PW     G-vecs:    dense   smooth      PW
     Min       13649    6829   1706              2400511   848635  106068
     Max       13652    6832   1710              2400516   848638  106070
     Sum       54601   27321   6833              9602055  3394547  424277

     Using Slab Decomposition



     bravais-lattice index     =            1
     lattice parameter (alat)  =      30.8754  a.u.
     unit-cell volume          =   29433.1808 (a.u.)^3
     number of atoms/cell      =           21
     number of atomic types    =            3
     number of electrons       =        66.00
     number of Kohn-Sham states=           33
     kinetic-energy cutoff     =      90.0000  Ry
     charge density cutoff     =     720.0000  Ry
     scf convergence threshold =      1.0E-08
     mixing beta               =       0.3000
     number of iterations used =            8  plain     mixing
     energy convergence thresh.=      1.0E-05
     force convergence thresh. =      1.0E-04
     Exchange-correlation= PBE
                           (   1   4   3   4   0   0   0)
     nstep                     =           50

     Assuming isolated system, Martyna-Tuckerman method


     celldm(1)=  30.875386  celldm(2)=   0.000000  celldm(3)=   0.000000
     celldm(4)=   0.000000  celldm(5)=   0.000000  celldm(6)=   0.000000

     crystal axes: (cart. coord. in units of alat)
               a(1) = (   1.000000   0.000000   0.000000 )  
               a(2) = (   0.000000   1.000000   0.000000 )  
               a(3) = (   0.000000   0.000000   1.000000 )  

     reciprocal axes: (cart. coord. in units 2 pi/alat)
               b(1) = (  1.000000  0.000000  0.000000 )  
               b(2) = (  0.000000  1.000000  0.000000 )  
               b(3) = (  0.000000  0.000000  1.000000 )  


     PseudoPot. # 1 for C  read from file:
     /mnt/d/Rifat_kh/SSSP_1.3.0_PBE_efficiency/C.pbe-n-kjpaw_psl.1.0.0.UPF
     MD5 check sum: 5d2aebdfa2cae82b50a7e79e9516da0f
     Pseudo is Projector augmented-wave + core cor, Zval =  4.0
     Generated using "atomic" code by A. Dal Corso  v.5.1
     Shape of augmentation charge: PSQ
     Using radial grid of 1073 points,  4 beta functions with: 
                l(1) =   0
                l(2) =   0
                l(3) =   1
                l(4) =   1
     Q(r) pseudized with 0 coefficients 


     PseudoPot. # 2 for Fe read from file:
     /mnt/d/Rifat_kh/SSSP_1.3.0_PBE_efficiency/Fe.pbe-spn-kjpaw_psl.0.2.1.UPF
     MD5 check sum: e86618425769142926afa95317d90200
     Pseudo is Projector augmented-wave + core cor, Zval = 16.0
     Generated using "atomic" code by A. Dal Corso  v.5.0.99 svn rev. 10869
     Shape of augmentation charge: PSQ
     Using radial grid of 1191 points,  6 beta functions with: 
                l(1) =   0
                l(2) =   0
                l(3) =   1
                l(4) =   1
                l(5) =   2
                l(6) =   2
     Q(r) pseudized with 0 coefficients 


     PseudoPot. # 3 for H  read from file:
     /mnt/d/Rifat_kh/SSSP_1.3.0_PBE_efficiency/H.pbe-rrkjus_psl.1.0.0.UPF
     MD5 check sum: f52b6d4d1c606e5624b1dc7b2218f220
     Pseudo is Ultrasoft, Zval =  1.0
     Generated using "atomic" code by A. Dal Corso  v.5.1
     Using radial grid of  929 points,  2 beta functions with: 
                l(1) =   0
                l(2) =   0
     Q(r) pseudized with 0 coefficients 


     atomic species   valence    mass     pseudopotential
     C                 4.00    12.01100     C ( 1.00)
     Fe               16.00    55.84500     Fe( 1.00)
     H                 1.00     1.00800     H ( 1.00)

      4 Sym. Ops. (no inversion) found



   Cartesian axes

     site n.     atom                  positions (alat units)
         1        Fe     tau(   1) = (   0.4999904   0.5000000   0.5000000  )
         2        C      tau(   2) = (   0.5746598   0.5000000   0.6003581  )
         3        C      tau(   3) = (   0.5230705   0.5710048   0.6003612  )
         4        C      tau(   4) = (   0.4395993   0.5438845   0.6003664  )
         5        C      tau(   5) = (   0.4395993   0.4561155   0.6003664  )
         6        C      tau(   6) = (   0.5230705   0.4289952   0.6003612  )
         7        H      tau(   7) = (   0.6411446   0.5000000   0.5993472  )
         8        H      tau(   8) = (   0.5436176   0.6342349   0.5993529  )
         9        H      tau(   9) = (   0.3858129   0.5829643   0.5993626  )
        10        H      tau(  10) = (   0.3858129   0.4170357   0.5993626  )
        11        H      tau(  11) = (   0.5436176   0.3657651   0.5993529  )
        12        C      tau(  12) = (   0.5746598   0.5000000   0.3996419  )
        13        C      tau(  13) = (   0.5230705   0.5710048   0.3996388  )
        14        C      tau(  14) = (   0.4395993   0.5438845   0.3996336  )
        15        C      tau(  15) = (   0.4395993   0.4561155   0.3996336  )
        16        C      tau(  16) = (   0.5230705   0.4289952   0.3996388  )
        17        H      tau(  17) = (   0.6411446   0.5000000   0.4006528  )
        18        H      tau(  18) = (   0.5436176   0.6342349   0.4006471  )
        19        H      tau(  19) = (   0.3858129   0.5829643   0.4006374  )
        20        H      tau(  20) = (   0.3858129   0.4170357   0.4006374  )
        21        H      tau(  21) = (   0.5436176   0.3657651   0.4006471  )

     --------------------------------------------
     DFT-D3 Dispersion Correction (3-body terms):
     --------------------------------------------
       Reference C6 values for interpolation: 

         atom   Coordination number   C6
         H          0.912             6.05
         H          0.000            15.18
         C          0.000            98.23
         C          0.987            86.49
         C          1.998            58.72
         C          2.999            51.56
         C          3.984            36.41
         Fe         0.000           982.67
         Fe         1.648           409.99
         Fe         9.138           219.01

       Values used:

         atom   Coordination number  R0_AB[au]  C6      C8
         Fe         9.394            3.252    219.01  20487.87
         C          4.134            2.750     36.50   1055.55
         C          4.134            2.750     36.50   1055.55
         C          4.134            2.750     36.50   1055.55
         C          4.134            2.750     36.50   1055.55
         C          4.134            2.750     36.50   1055.55
         H          1.003            2.062      6.18     74.69
         H          1.003            2.062      6.18     74.69
         H          1.003            2.062      6.18     74.69
         H          1.003            2.062      6.18     74.69
         H          1.003            2.062      6.18     74.69
         C          4.134            2.750     36.50   1055.55
         C          4.134            2.750     36.50   1055.55
         C          4.134            2.750     36.50   1055.55
         C          4.134            2.750     36.50   1055.55
         C          4.134            2.750     36.50   1055.55
         H          1.003            2.062      6.18     74.69
         H          1.003            2.062      6.18     74.69
         H          1.003            2.062      6.18     74.69
         H          1.003            2.062      6.18     74.69
         H          1.003            2.062      6.18     74.69

         Molecular C6 ( Ry / a.u.^6 ) =      9958.87


     number of k points=     1
                       cart. coord. in units 2pi/alat
        k(    1) = (   0.0000000   0.0000000   0.0000000), wk =   2.0000000

     Dense  grid:  4801028 G-vectors     FFT dimensions: ( 270, 270, 270)

     Smooth grid:  1697274 G-vectors     FFT dimensions: ( 192, 192, 192)

     Estimated max dynamical RAM per process >       4.85 GB

     Estimated total dynamical RAM >      19.39 GB

     Initial potential from superposition of free atoms

     starting charge      65.9991, renormalised to      66.0000

     negative rho (up, down):  3.325E-03 0.000E+00
     Starting wfcs are   63 randomized atomic wfcs
     Checking if some PAW data can be deallocated... 

     total cpu time spent up to now is       24.8 secs

     Self-consistent Calculation

     iteration #  1     ecut=    90.00 Ry     beta= 0.30
     Davidson diagonalization with overlap
     ethr =  1.00E-02,  avg # of iterations =  3.0

     negative rho (up, down):  2.882E-03 0.000E+00

     total cpu time spent up to now is       66.5 secs

     total energy              =    -525.39498797 Ry
     estimated scf accuracy    <       1.82634353 Ry

     iteration #  2     ecut=    90.00 Ry     beta= 0.30
     Davidson diagonalization with overlap
     ethr =  2.77E-03,  avg # of iterations =  2.0

     negative rho (up, down):  1.615E-02 0.000E+00

     total cpu time spent up to now is      106.8 secs

     total energy              =    -525.06251367 Ry
     estimated scf accuracy    <       0.81170283 Ry

     iteration #  3     ecut=    90.00 Ry     beta= 0.30
     Davidson diagonalization with overlap
     ethr =  1.23E-03,  avg # of iterations =  5.0

     negative rho (up, down):  9.433E-03 0.000E+00

     total cpu time spent up to now is      159.8 secs

     total energy              =    -525.35591885 Ry
     estimated scf accuracy    <       0.12755069 Ry

     iteration #  4     ecut=    90.00 Ry     beta= 0.30
     Davidson diagonalization with overlap
     ethr =  1.93E-04,  avg # of iterations =  6.0

     negative rho (up, down):  4.348E-03 0.000E+00

     total cpu time spent up to now is      207.8 secs

     total energy              =    -525.41297583 Ry
     estimated scf accuracy    <       0.08652096 Ry

     iteration #  5     ecut=    90.00 Ry     beta= 0.30
     Davidson diagonalization with overlap
     ethr =  1.31E-04,  avg # of iterations =  6.0

     negative rho (up, down):  7.726E-03 0.000E+00

     total cpu time spent up to now is      264.4 secs

     total energy              =    -525.27966711 Ry
     estimated scf accuracy    <       0.97911763 Ry

     iteration #  6     ecut=    90.00 Ry     beta= 0.30
     Davidson diagonalization with overlap
     ethr =  1.31E-04,  avg # of iterations =  6.0

     negative rho (up, down):  7.434E-03 0.000E+00

     total cpu time spent up to now is      312.0 secs

     total energy              =    -525.37877852 Ry
     estimated scf accuracy    <       0.02609138 Ry

     iteration #  7     ecut=    90.00 Ry     beta= 0.30
     Davidson diagonalization with overlap
     ethr =  3.95E-05,  avg # of iterations =  6.0

     negative rho (up, down):  5.744E-03 0.000E+00

     total cpu time spent up to now is      362.6 secs

     total energy              =    -525.39790658 Ry
     estimated scf accuracy    <       0.00555780 Ry

     iteration #  8     ecut=    90.00 Ry     beta= 0.30
     Davidson diagonalization with overlap
     ethr =  8.42E-06,  avg # of iterations =  5.0

     negative rho (up, down):  5.127E-03 0.000E+00

     total cpu time spent up to now is      407.9 secs

     total energy              =    -525.39599259 Ry
     estimated scf accuracy    <       0.00919856 Ry

     iteration #  9     ecut=    90.00 Ry     beta= 0.30
     Davidson diagonalization with overlap
     ethr =  8.42E-06,  avg # of iterations =  3.0

     negative rho (up, down):  4.411E-03 0.000E+00

     total cpu time spent up to now is      455.2 secs

     total energy              =    -525.39678204 Ry
     estimated scf accuracy    <       0.00097360 Ry

     iteration # 10     ecut=    90.00 Ry     beta= 0.30
     Davidson diagonalization with overlap
     ethr =  1.48E-06,  avg # of iterations =  5.0

     negative rho (up, down):  4.094E-03 0.000E+00

     total cpu time spent up to now is      503.7 secs

     total energy              =    -525.39724987 Ry
     estimated scf accuracy    <       0.00109179 Ry

     iteration # 11     ecut=    90.00 Ry     beta= 0.30
     Davidson diagonalization with overlap
     ethr =  1.48E-06,  avg # of iterations =  2.0

     negative rho (up, down):  3.882E-03 0.000E+00

     total cpu time spent up to now is      546.2 secs

     total energy              =    -525.39732679 Ry
     estimated scf accuracy    <       0.00042608 Ry

     iteration # 12     ecut=    90.00 Ry     beta= 0.30
     Davidson diagonalization with overlap
     ethr =  6.46E-07,  avg # of iterations =  1.0

     negative rho (up, down):  3.811E-03 0.000E+00

     total cpu time spent up to now is      598.2 secs

     total energy              =    -525.39726403 Ry
     estimated scf accuracy    <       0.00036224 Ry

     iteration # 13     ecut=    90.00 Ry     beta= 0.30
     Davidson diagonalization with overlap
     ethr =  5.49E-07,  avg # of iterations =  5.0

     negative rho (up, down):  3.740E-03 0.000E+00

     total cpu time spent up to now is      655.2 secs

     total energy              =    -525.39733861 Ry
     estimated scf accuracy    <       0.00013989 Ry

     iteration # 14     ecut=    90.00 Ry     beta= 0.30
     Davidson diagonalization with overlap
     ethr =  2.12E-07,  avg # of iterations =  2.0

     negative rho (up, down):  3.710E-03 0.000E+00

     total cpu time spent up to now is      707.5 secs

     total energy              =    -525.39734931 Ry
     estimated scf accuracy    <       0.00008425 Ry

     iteration # 15     ecut=    90.00 Ry     beta= 0.30
     Davidson diagonalization with overlap
     ethr =  1.28E-07,  avg # of iterations =  1.0

     negative rho (up, down):  3.688E-03 0.000E+00

     total cpu time spent up to now is      751.5 secs

     total energy              =    -525.39731206 Ry
     estimated scf accuracy    <       0.00009695 Ry

     iteration # 16     ecut=    90.00 Ry     beta= 0.30
     Davidson diagonalization with overlap
     ethr =  1.28E-07,  avg # of iterations =  6.0

     negative rho (up, down):  3.685E-03 0.000E+00

     total cpu time spent up to now is      795.4 secs

     total energy              =    -525.39734211 Ry
     estimated scf accuracy    <       0.00030953 Ry

     iteration # 17     ecut=    90.00 Ry     beta= 0.30
     Davidson diagonalization with overlap
     ethr =  1.28E-07,  avg # of iterations =  4.0

     negative rho (up, down):  3.681E-03 0.000E+00

     total cpu time spent up to now is      837.3 secs

     total energy              =    -525.39735979 Ry
     estimated scf accuracy    <       0.00010115 Ry

     iteration # 18     ecut=    90.00 Ry     beta= 0.30
     Davidson diagonalization with overlap
     ethr =  1.28E-07,  avg # of iterations =  1.0

     negative rho (up, down):  3.679E-03 0.000E+00

     total cpu time spent up to now is      877.7 secs

     total energy              =    -525.39735674 Ry
     estimated scf accuracy    <       0.00013102 Ry

     iteration # 19     ecut=    90.00 Ry     beta= 0.30
     Davidson diagonalization with overlap
     ethr =  1.28E-07,  avg # of iterations =  1.0

     negative rho (up, down):  3.678E-03 0.000E+00

     total cpu time spent up to now is      918.3 secs

     total energy              =    -525.39732037 Ry
     estimated scf accuracy    <       0.00012588 Ry

     iteration # 20     ecut=    90.00 Ry     beta= 0.30
     Davidson diagonalization with overlap
     ethr =  1.28E-07,  avg # of iterations =  5.0

     negative rho (up, down):  3.677E-03 0.000E+00

     total cpu time spent up to now is      965.6 secs

     total energy              =    -525.39735155 Ry
     estimated scf accuracy    <       0.00006607 Ry

     iteration # 21     ecut=    90.00 Ry     beta= 0.30
     Davidson diagonalization with overlap
     ethr =  1.00E-07,  avg # of iterations =  1.0

     negative rho (up, down):  3.677E-03 0.000E+00

     total cpu time spent up to now is     1006.9 secs

     total energy              =    -525.39735414 Ry
     estimated scf accuracy    <       0.00006869 Ry

     iteration # 22     ecut=    90.00 Ry     beta= 0.30
     Davidson diagonalization with overlap
     ethr =  1.00E-07,  avg # of iterations =  1.0

     negative rho (up, down):  3.677E-03 0.000E+00

     total cpu time spent up to now is     1048.2 secs

     total energy              =    -525.39735009 Ry
     estimated scf accuracy    <       0.00007924 Ry

     iteration # 23     ecut=    90.00 Ry     beta= 0.30
     Davidson diagonalization with overlap
     ethr =  1.00E-07,  avg # of iterations =  1.0

     negative rho (up, down):  3.675E-03 0.000E+00

     total cpu time spent up to now is     1089.4 secs

     total energy              =    -525.39733270 Ry
     estimated scf accuracy    <       0.00006712 Ry

     iteration # 24     ecut=    90.00 Ry     beta= 0.30
     Davidson diagonalization with overlap
     ethr =  1.00E-07,  avg # of iterations =  5.0

     negative rho (up, down):  3.675E-03 0.000E+00

     total cpu time spent up to now is     1136.3 secs

     total energy              =    -525.39734912 Ry
     estimated scf accuracy    <       0.00003245 Ry

     iteration # 25     ecut=    90.00 Ry     beta= 0.30
     Davidson diagonalization with overlap
     ethr =  4.92E-08,  avg # of iterations =  1.0

     negative rho (up, down):  3.674E-03 0.000E+00

     total cpu time spent up to now is     1176.5 secs

     total energy              =    -525.39734909 Ry
     estimated scf accuracy    <       0.00003519 Ry

     iteration # 26     ecut=    90.00 Ry     beta= 0.30
     Davidson diagonalization with overlap
     ethr =  4.92E-08,  avg # of iterations =  1.0

     negative rho (up, down):  3.675E-03 0.000E+00

     total cpu time spent up to now is     1218.1 secs

     total energy              =    -525.39734531 Ry
     estimated scf accuracy    <       0.00003558 Ry

     iteration # 27     ecut=    90.00 Ry     beta= 0.30
     Davidson diagonalization with overlap
     ethr =  4.92E-08,  avg # of iterations =  2.0

     negative rho (up, down):  3.675E-03 0.000E+00

     total cpu time spent up to now is     1259.0 secs

     total energy              =    -525.39734380 Ry
     estimated scf accuracy    <       0.00001517 Ry

     iteration # 28     ecut=    90.00 Ry     beta= 0.30
     Davidson diagonalization with overlap
     ethr =  2.30E-08,  avg # of iterations =  5.0

     negative rho (up, down):  3.675E-03 0.000E+00

     total cpu time spent up to now is     1301.1 secs

     total energy              =    -525.39734562 Ry
     estimated scf accuracy    <       0.00000021 Ry

     iteration # 29     ecut=    90.00 Ry     beta= 0.30
     Davidson diagonalization with overlap
     ethr =  3.17E-10,  avg # of iterations =  6.0

     negative rho (up, down):  3.675E-03 0.000E+00

     total cpu time spent up to now is     1350.1 secs

     total energy              =    -525.39734584 Ry
     estimated scf accuracy    <       0.00000024 Ry

     iteration # 30     ecut=    90.00 Ry     beta= 0.30
     Davidson diagonalization with overlap
     ethr =  3.17E-10,  avg # of iterations =  5.0

     negative rho (up, down):  3.676E-03 0.000E+00

     total cpu time spent up to now is     1392.7 secs

     total energy              =    -525.39734571 Ry
     estimated scf accuracy    <       0.00000038 Ry

     iteration # 31     ecut=    90.00 Ry     beta= 0.30
     Davidson diagonalization with overlap
     ethr =  3.17E-10,  avg # of iterations = 10.0

     negative rho (up, down):  3.676E-03 0.000E+00

     total cpu time spent up to now is     1451.8 secs

     total energy              =    -525.39734730 Ry
     estimated scf accuracy    <       0.00001883 Ry

     iteration # 32     ecut=    90.00 Ry     beta= 0.30
     Davidson diagonalization with overlap
     ethr =  3.17E-10,  avg # of iterations =  2.0

     negative rho (up, down):  3.676E-03 0.000E+00

     total cpu time spent up to now is     1497.6 secs

     total energy              =    -525.39734590 Ry
     estimated scf accuracy    <       0.00001752 Ry

     iteration # 33     ecut=    90.00 Ry     beta= 0.30
     Davidson diagonalization with overlap
     ethr =  3.17E-10,  avg # of iterations =  7.0

     negative rho (up, down):  3.676E-03 0.000E+00

     total cpu time spent up to now is     1543.6 secs

     total energy              =    -525.39734634 Ry
     estimated scf accuracy    <       0.00000487 Ry

     iteration # 34     ecut=    90.00 Ry     beta= 0.30
     Davidson diagonalization with overlap
     ethr =  3.17E-10,  avg # of iterations =  2.0

     negative rho (up, down):  3.675E-03 0.000E+00

     total cpu time spent up to now is     1586.0 secs

     total energy              =    -525.39734566 Ry
     estimated scf accuracy    <       0.00000543 Ry

     iteration # 35     ecut=    90.00 Ry     beta= 0.30
     Davidson diagonalization with overlap
     ethr =  3.17E-10,  avg # of iterations =  8.0

     negative rho (up, down):  3.675E-03 0.000E+00

     total cpu time spent up to now is     1643.7 secs

     total energy              =    -525.39734575 Ry
     estimated scf accuracy    <       0.00000054 Ry

     iteration # 36     ecut=    90.00 Ry     beta= 0.30
     Davidson diagonalization with overlap
     ethr =  3.17E-10,  avg # of iterations =  6.0

     negative rho (up, down):  3.676E-03 0.000E+00

     total cpu time spent up to now is     1708.7 secs

     total energy              =    -525.39734578 Ry
     estimated scf accuracy    <       0.00000059 Ry

     iteration # 37     ecut=    90.00 Ry     beta= 0.30
     Davidson diagonalization with overlap
     ethr =  3.17E-10,  avg # of iterations =  5.0

     negative rho (up, down):  3.674E-03 0.000E+00

     total cpu time spent up to now is     1761.8 secs

     total energy              =    -525.39734577 Ry
     estimated scf accuracy    <       0.00000029 Ry

     iteration # 38     ecut=    90.00 Ry     beta= 0.30
     Davidson diagonalization with overlap
     ethr =  3.17E-10,  avg # of iterations =  6.0

     negative rho (up, down):  3.674E-03 0.000E+00

     total cpu time spent up to now is     1811.4 secs

     total energy              =    -525.39734586 Ry
     estimated scf accuracy    <       0.00000183 Ry

     iteration # 39     ecut=    90.00 Ry     beta= 0.30
     Davidson diagonalization with overlap
     ethr =  3.17E-10,  avg # of iterations =  4.0

     negative rho (up, down):  3.674E-03 0.000E+00

     total cpu time spent up to now is     1854.2 secs

     total energy              =    -525.39734572 Ry
     estimated scf accuracy    <       0.00000133 Ry

     iteration # 40     ecut=    90.00 Ry     beta= 0.30
     Davidson diagonalization with overlap
     ethr =  3.17E-10,  avg # of iterations =  6.0

     negative rho (up, down):  3.674E-03 0.000E+00

     total cpu time spent up to now is     1896.0 secs

     End of self-consistent calculation

          k = 0.0000 0.0000 0.0000 (212139 PWs)   bands (ev):

   -90.1225 -56.9277 -55.9164 -55.9163 -22.1414 -21.6737 -17.5076 -17.5075
   -17.4868 -17.4867 -13.3514 -13.3514 -13.1315 -13.1208 -13.1207 -12.7812
   -10.1446  -9.9362  -9.9362  -9.6291  -9.6291  -9.1639  -9.1638  -9.0272
    -9.0271  -8.7529  -6.6474  -6.6472  -6.1960  -6.1958  -4.4463  -4.3153
    -4.3151

     highest occupied level (ev):    -4.3151

!    total energy              =    -525.39734582 Ry
     estimated scf accuracy    <          6.4E-09 Ry

     The total energy is the sum of the following terms:
     one-electron contribution =   -2334.16907544 Ry
     hartree contribution      =    1171.21791107 Ry
     xc contribution           =     -88.22982776 Ry
     ewald contribution        =     863.62486006 Ry
     DFT-D3 Dispersion         =      -0.02559611 Ry
     one-center paw contrib.   =    -137.81561764 Ry

     convergence has been achieved in  40 iterations

     negative rho (up, down):  3.674E-03 0.000E+00

     Forces acting on atoms (cartesian axes, Ry/au):

     atom    1 type  2   force =     0.00004282    0.00000000    0.00000000
     atom    2 type  1   force =    -0.00002354    0.00000000   -0.00070988
     atom    3 type  1   force =     0.00002188    0.00001343   -0.00070416
     atom    4 type  1   force =    -0.00001621   -0.00002382   -0.00070448
     atom    5 type  1   force =    -0.00001621    0.00002382   -0.00070448
     atom    6 type  1   force =     0.00002188   -0.00001343   -0.00070416
     atom    7 type  3   force =    -0.00008511    0.00000000   -0.00031515
     atom    8 type  3   force =    -0.00002867   -0.00007950   -0.00031242
     atom    9 type  3   force =     0.00006661   -0.00005022   -0.00030772
     atom   10 type  3   force =     0.00006661    0.00005022   -0.00030772
     atom   11 type  3   force =    -0.00002867    0.00007950   -0.00031242
     atom   12 type  1   force =    -0.00002354    0.00000000    0.00070988
     atom   13 type  1   force =     0.00002188    0.00001343    0.00070416
     atom   14 type  1   force =    -0.00001621   -0.00002382    0.00070448
     atom   15 type  1   force =    -0.00001621    0.00002382    0.00070448
     atom   16 type  1   force =     0.00002188   -0.00001343    0.00070416
     atom   17 type  3   force =    -0.00008511    0.00000000    0.00031515
     atom   18 type  3   force =    -0.00002867   -0.00007950    0.00031242
     atom   19 type  3   force =     0.00006661   -0.00005022    0.00030772
     atom   20 type  3   force =     0.00006661    0.00005022    0.00030772
     atom   21 type  3   force =    -0.00002867    0.00007950    0.00031242

     Total force =     0.002454     Total SCF correction =     0.000113

     BFGS Geometry Optimization
     Energy error            =      6.0E-06 Ry
     Gradient error          =      7.1E-04 Ry/Bohr

     number of scf cycles    =   1
     number of bfgs steps    =   0

     energy             new  =    -525.3973458168 Ry

     new trust radius        =       0.0007102660 bohr
     new conv_thr            =       0.0000000100 Ry


ATOMIC_POSITIONS (angstrom)
Fe               8.1691406590        8.1692753900        8.1692753900
C                9.3890950615        8.1692753900        9.8086064500
C                8.5462248703        9.3293976282        9.8086594669
C                7.1824071924        8.8862717533        9.8087445771
C                7.1824071924        7.4522790267        9.8087445771
C                8.5462248703        7.0091531618        9.8086594669
H               10.4753284825        8.1692753900        9.7922983182
H                8.8819079607       10.3624377030        9.7923926246
H                6.3036588698        9.5247649864        9.7925538598
H                6.3036588698        6.8137858036        9.7925538598
H                8.8819079607        5.9761130870        9.7923926246
C                9.3890950615        8.1692753900        6.5299443300
C                8.5462248703        9.3293976282        6.5298913131
C                7.1824071924        8.8862717533        6.5298062029
C                7.1824071924        7.4522790267        6.5298062029
C                8.5462248703        7.0091531618        6.5298913131
H               10.4753284825        8.1692753900        6.5462524618
H                8.8819079607       10.3624377030        6.5461581554
H                6.3036588698        9.5247649864        6.5459969202
H                6.3036588698        6.8137858036        6.5459969202
H                8.8819079607        5.9761130870        6.5461581554



     Writing config-only to output data dir /home/duets/qe_workdirs/ferrocene_pbed3/ferrocene_pbed3.save/ :
     XML data file
     NEW-OLD atomic charge density approx. for the potential

     negative rho (up, down):  3.675E-03 0.000E+00

     total cpu time spent up to now is     1945.8 secs

     Self-consistent Calculation

     iteration #  1     ecut=    90.00 Ry     beta= 0.30
     Davidson diagonalization with overlap
     ethr =  1.00E-06,  avg # of iterations =  2.0

     Threshold (ethr) on eigenvalues was too large:
     Diagonalizing with lowered threshold

     Davidson diagonalization with overlap
     ethr =  3.63E-09,  avg # of iterations =  7.0

     negative rho (up, down):  3.675E-03 0.000E+00

     total cpu time spent up to now is     2035.6 secs

     total energy              =    -525.39735135 Ry
     estimated scf accuracy    <       0.00000061 Ry

     iteration #  2     ecut=    90.00 Ry     beta= 0.30
     Davidson diagonalization with overlap
     ethr =  9.30E-10,  avg # of iterations =  4.0

     negative rho (up, down):  3.675E-03 0.000E+00

     total cpu time spent up to now is     2084.2 secs

     total energy              =    -525.39735139 Ry
     estimated scf accuracy    <       0.00000065 Ry

     iteration #  3     ecut=    90.00 Ry     beta= 0.30
     Davidson diagonalization with overlap
     ethr =  9.30E-10,  avg # of iterations =  4.0

     negative rho (up, down):  3.675E-03 0.000E+00

     total cpu time spent up to now is     2127.0 secs

     total energy              =    -525.39735141 Ry
     estimated scf accuracy    <       0.00000021 Ry

     iteration #  4     ecut=    90.00 Ry     beta= 0.30
     Davidson diagonalization with overlap
     ethr =  3.20E-10,  avg # of iterations =  5.0

     negative rho (up, down):  3.675E-03 0.000E+00

     total cpu time spent up to now is     2176.2 secs

     total energy              =    -525.39735148 Ry
     estimated scf accuracy    <       0.00000008 Ry

     iteration #  5     ecut=    90.00 Ry     beta= 0.30
     Davidson diagonalization with overlap
     ethr =  1.26E-10,  avg # of iterations =  2.0

     negative rho (up, down):  3.675E-03 0.000E+00

     total cpu time spent up to now is     2217.7 secs

     total energy              =    -525.39735145 Ry
     estimated scf accuracy    <       0.00000006 Ry

     iteration #  6     ecut=    90.00 Ry     beta= 0.30
     Davidson diagonalization with overlap
     ethr =  8.61E-11,  avg # of iterations =  6.0

     negative rho (up, down):  3.675E-03 0.000E+00

     total cpu time spent up to now is     2265.5 secs

     total energy              =    -525.39735147 Ry
     estimated scf accuracy    <       0.00000041 Ry

     iteration #  7     ecut=    90.00 Ry     beta= 0.30
     Davidson diagonalization with overlap
     ethr =  8.61E-11,  avg # of iterations =  5.0

     negative rho (up, down):  3.675E-03 0.000E+00

     total cpu time spent up to now is     2309.2 secs

     total energy              =    -525.39735148 Ry
     estimated scf accuracy    <       0.00000004 Ry

     iteration #  8     ecut=    90.00 Ry     beta= 0.30
     Davidson diagonalization with overlap
     ethr =  6.35E-11,  avg # of iterations =  1.0

     negative rho (up, down):  3.675E-03 0.000E+00

     total cpu time spent up to now is     2350.4 secs

     total energy              =    -525.39735147 Ry
     estimated scf accuracy    <       0.00000003 Ry

     iteration #  9     ecut=    90.00 Ry     beta= 0.30
     Davidson diagonalization with overlap
     ethr =  4.40E-11,  avg # of iterations =  6.0

     negative rho (up, down):  3.675E-03 0.000E+00

     total cpu time spent up to now is     2395.8 secs

     total energy              =    -525.39735149 Ry
     estimated scf accuracy    <       0.00000005 Ry

     iteration # 10     ecut=    90.00 Ry     beta= 0.30
     Davidson diagonalization with overlap
     ethr =  4.40E-11,  avg # of iterations =  1.0

     negative rho (up, down):  3.675E-03 0.000E+00

     total cpu time spent up to now is     2441.3 secs

     total energy              =    -525.39735148 Ry
     estimated scf accuracy    <       0.00000003 Ry

     iteration # 11     ecut=    90.00 Ry     beta= 0.30
     Davidson diagonalization with overlap
     ethr =  4.40E-11,  avg # of iterations =  4.0

     negative rho (up, down):  3.675E-03 0.000E+00

     total cpu time spent up to now is     2482.6 secs

     End of self-consistent calculation

          k = 0.0000 0.0000 0.0000 (212139 PWs)   bands (ev):

   -90.1232 -56.9284 -55.9173 -55.9173 -22.1423 -21.6739 -17.5082 -17.5081
   -17.4873 -17.4873 -13.3520 -13.3519 -13.1323 -13.1211 -13.1210 -12.7815
   -10.1449  -9.9375  -9.9375  -9.6297  -9.6296  -9.1644  -9.1643  -9.0275
    -9.0274  -8.7523  -6.6474  -6.6473  -6.1965  -6.1964  -4.4470  -4.3167
    -4.3166

     highest occupied level (ev):    -4.3166

!    total energy              =    -525.39735149 Ry
     estimated scf accuracy    <          1.3E-09 Ry

     The total energy is the sum of the following terms:
     one-electron contribution =   -2334.32778912 Ry
     hartree contribution      =    1171.29605115 Ry
     xc contribution           =     -88.23074831 Ry
     ewald contribution        =     863.70638121 Ry
     DFT-D3 Dispersion         =      -0.02559959 Ry
     one-center paw contrib.   =    -137.81564682 Ry

     convergence has been achieved in  11 iterations

     negative rho (up, down):  3.675E-03 0.000E+00

     Forces acting on atoms (cartesian axes, Ry/au):

     atom    1 type  2   force =    -0.00002594    0.00000000    0.00000000
     atom    2 type  1   force =     0.00001937    0.00000000   -0.00060123
     atom    3 type  1   force =    -0.00002045   -0.00001795   -0.00060258
     atom    4 type  1   force =     0.00001788    0.00001200   -0.00060171
     atom    5 type  1   force =     0.00001788   -0.00001200   -0.00060171
     atom    6 type  1   force =    -0.00002045    0.00001795   -0.00060258
     atom    7 type  3   force =    -0.00002309    0.00000000   -0.00033426
     atom    8 type  3   force =     0.00000174    0.00000198   -0.00033223
     atom    9 type  3   force =     0.00000918   -0.00000930   -0.00032913
     atom   10 type  3   force =     0.00000918    0.00000930   -0.00032913
     atom   11 type  3   force =     0.00000174   -0.00000198   -0.00033223
     atom   12 type  1   force =     0.00001937    0.00000000    0.00060123
     atom   13 type  1   force =    -0.00002045   -0.00001795    0.00060258
     atom   14 type  1   force =     0.00001788    0.00001200    0.00060171
     atom   15 type  1   force =     0.00001788   -0.00001200    0.00060171
     atom   16 type  1   force =    -0.00002045    0.00001795    0.00060258
     atom   17 type  3   force =    -0.00002309   -0.00000000    0.00033426
     atom   18 type  3   force =     0.00000174    0.00000198    0.00033223
     atom   19 type  3   force =     0.00000918   -0.00000930    0.00032913
     atom   20 type  3   force =     0.00000918    0.00000930    0.00032913
     atom   21 type  3   force =     0.00000174   -0.00000198    0.00033223

     Total force =     0.002175     Total SCF correction =     0.000106
     Energy error            =      5.7E-06 Ry
     Gradient error          =      6.0E-04 Ry/Bohr

     number of scf cycles    =   2
     number of bfgs steps    =   1

     energy             old  =    -525.3973458168 Ry
     energy             new  =    -525.3973514854 Ry

     CASE: energy            _new < energy            _old


     WARNING: bfgs curvature condition failed, Theta= 0.913
     new trust radius        =       0.0007812926 bohr
     new conv_thr            =            1.0E-10 Ry


ATOMIC_POSITIONS (angstrom)
Fe               8.1691324569        8.1692753900        8.1692753900
C                9.3891022892        8.1692753900        9.8081931280
C                8.5462168449        9.3293898303        9.8082461761
C                7.1824145884        8.8862750188        9.8083317078
C                7.1824145884        7.4522757612        9.8083317078
C                8.5462168449        7.0091609597        9.8082461761
H               10.4753050238        8.1692753900        9.7920789513
H                8.8819051300       10.3624283332        9.7921746990
H                6.3036724960        9.5247534503        9.7923382041
H                6.3036724960        6.8137973397        9.7923382041
H                8.8819051300        5.9761224568        9.7921746990
C                9.3891022892        8.1692753900        6.5303576520
C                8.5462168449        9.3293898303        6.5303046039
C                7.1824145884        8.8862750188        6.5302190722
C                7.1824145884        7.4522757612        6.5302190722
C                8.5462168449        7.0091609597        6.5303046039
H               10.4753050238        8.1692753900        6.5464718287
H                8.8819051300       10.3624283332        6.5463760810
H                6.3036724960        9.5247534503        6.5462125759
H                6.3036724960        6.8137973397        6.5462125759
H                8.8819051300        5.9761224568        6.5463760810



     Writing config-only to output data dir /home/duets/qe_workdirs/ferrocene_pbed3/ferrocene_pbed3.save/ :
     XML data file
     NEW-OLD atomic charge density approx. for the potential

     negative rho (up, down):  3.675E-03 0.000E+00

     total cpu time spent up to now is     2528.7 secs

     Self-consistent Calculation

     iteration #  1     ecut=    90.00 Ry     beta= 0.30
     Davidson diagonalization with overlap
     ethr =  1.00E-06,  avg # of iterations =  2.0

     Threshold (ethr) on eigenvalues was too large:
     Diagonalizing with lowered threshold

     Davidson diagonalization with overlap
     ethr =  2.88E-09,  avg # of iterations =  7.0

     negative rho (up, down):  3.675E-03 0.000E+00

     total cpu time spent up to now is     2616.2 secs

     total energy              =    -525.39735711 Ry
     estimated scf accuracy    <       0.00000100 Ry

     iteration #  2     ecut=    90.00 Ry     beta= 0.30
     Davidson diagonalization with overlap
     ethr =  1.51E-09,  avg # of iterations =  4.0

     negative rho (up, down):  3.675E-03 0.000E+00

     total cpu time spent up to now is     2662.8 secs

     total energy              =    -525.39735712 Ry
     estimated scf accuracy    <       0.00000040 Ry

     iteration #  3     ecut=    90.00 Ry     beta= 0.30
     Davidson diagonalization with overlap
     ethr =  6.10E-10,  avg # of iterations =  4.0

     negative rho (up, down):  3.675E-03 0.000E+00

     total cpu time spent up to now is     2707.2 secs

     total energy              =    -525.39735715 Ry
     estimated scf accuracy    <       0.00000029 Ry

     iteration #  4     ecut=    90.00 Ry     beta= 0.30
     Davidson diagonalization with overlap
     ethr =  4.36E-10,  avg # of iterations =  4.0

     negative rho (up, down):  3.675E-03 0.000E+00

     total cpu time spent up to now is     2754.9 secs

     total energy              =    -525.39735722 Ry
     estimated scf accuracy    <       0.00000004 Ry

     iteration #  5     ecut=    90.00 Ry     beta= 0.30
     Davidson diagonalization with overlap
     ethr =  6.46E-11,  avg # of iterations =  6.0

     negative rho (up, down):  3.675E-03 0.000E+00

     total cpu time spent up to now is     2801.5 secs

     total energy              =    -525.39735723 Ry
     estimated scf accuracy    <       0.00000002 Ry

     iteration #  6     ecut=    90.00 Ry     beta= 0.30
     Davidson diagonalization with overlap
     ethr =  3.70E-11,  avg # of iterations =  5.0

     negative rho (up, down):  3.675E-03 0.000E+00

     total cpu time spent up to now is     2843.5 secs

     total energy              =    -525.39735724 Ry
     estimated scf accuracy    <          1.1E-09 Ry

     iteration #  7     ecut=    90.00 Ry     beta= 0.30
     Davidson diagonalization with overlap
     ethr =  1.72E-12,  avg # of iterations =  6.0

     negative rho (up, down):  3.675E-03 0.000E+00

     total cpu time spent up to now is     2897.7 secs

     total energy              =    -525.39735724 Ry
     estimated scf accuracy    <          8.9E-10 Ry

     iteration #  8     ecut=    90.00 Ry     beta= 0.30
     Davidson diagonalization with overlap
     ethr =  1.35E-12,  avg # of iterations =  5.0

     negative rho (up, down):  3.675E-03 0.000E+00

     total cpu time spent up to now is     2941.1 secs

     total energy              =    -525.39735724 Ry
     estimated scf accuracy    <          3.8E-10 Ry

     iteration #  9     ecut=    90.00 Ry     beta= 0.30
     Davidson diagonalization with overlap
     ethr =  5.81E-13,  avg # of iterations =  4.0

     negative rho (up, down):  3.675E-03 0.000E+00

     total cpu time spent up to now is     2982.2 secs

     End of self-consistent calculation

          k = 0.0000 0.0000 0.0000 (212139 PWs)   bands (ev):

   -90.1239 -56.9290 -55.9182 -55.9182 -22.1430 -21.6739 -17.5085 -17.5085
   -17.4876 -17.4876 -13.3523 -13.3522 -13.1329 -13.1210 -13.1209 -12.7816
   -10.1451  -9.9385  -9.9385  -9.6300  -9.6299  -9.1646  -9.1645  -9.0275
    -9.0274  -8.7513  -6.6472  -6.6472  -6.1969  -6.1968  -4.4476  -4.3182
    -4.3181

     highest occupied level (ev):    -4.3181

!    total energy              =    -525.39735724 Ry
     estimated scf accuracy    <          1.3E-11 Ry

     The total energy is the sum of the following terms:
     one-electron contribution =   -2334.50574557 Ry
     hartree contribution      =    1171.38537231 Ry
     xc contribution           =     -88.23175434 Ry
     ewald contribution        =     863.79604911 Ry
     DFT-D3 Dispersion         =      -0.02560361 Ry
     one-center paw contrib.   =    -137.81567514 Ry

     convergence has been achieved in   9 iterations

     negative rho (up, down):  3.675E-03 0.000E+00

     Forces acting on atoms (cartesian axes, Ry/au):

     atom    1 type  2   force =     0.00003116    0.00000000    0.00000000
     atom    2 type  1   force =    -0.00000845    0.00000000   -0.00050672
     atom    3 type  1   force =     0.00001255    0.00002313   -0.00050470
     atom    4 type  1   force =    -0.00001422    0.00000542   -0.00050431
     atom    5 type  1   force =    -0.00001422   -0.00000542   -0.00050431
     atom    6 type  1   force =     0.00001255   -0.00002313   -0.00050470
     atom    7 type  3   force =     0.00001777    0.00000000   -0.00035477
     atom    8 type  3   force =    -0.00000024    0.00000680   -0.00035217
     atom    9 type  3   force =    -0.00001054    0.00000486   -0.00034877
     atom   10 type  3   force =    -0.00001054   -0.00000486   -0.00034877
     atom   11 type  3   force =    -0.00000024   -0.00000680   -0.00035217
     atom   12 type  1   force =    -0.00000845    0.00000000    0.00050672
     atom   13 type  1   force =     0.00001255    0.00002313    0.00050470
     atom   14 type  1   force =    -0.00001422    0.00000542    0.00050431
     atom   15 type  1   force =    -0.00001422   -0.00000542    0.00050431
     atom   16 type  1   force =     0.00001255   -0.00002313    0.00050470
     atom   17 type  3   force =     0.00001777    0.00000000    0.00035477
     atom   18 type  3   force =    -0.00000024    0.00000680    0.00035217
     atom   19 type  3   force =    -0.00001054    0.00000486    0.00034877
     atom   20 type  3   force =    -0.00001054   -0.00000486    0.00034877
     atom   21 type  3   force =    -0.00000024   -0.00000680    0.00035217

     Total force =     0.001947     Total SCF correction =     0.000009
     Energy error            =      5.8E-06 Ry
     Gradient error          =      5.1E-04 Ry/Bohr

     number of scf cycles    =   3
     number of bfgs steps    =   2

     energy             old  =    -525.3973514854 Ry
     energy             new  =    -525.3973572402 Ry

     CASE: energy            _new < energy            _old

     new trust radius        =       0.0011719389 bohr
     new conv_thr            =            1.0E-10 Ry


ATOMIC_POSITIONS (angstrom)
Fe               8.1691669171        8.1692753900        8.1692753900
C                9.3890909213        8.1692753900        9.8075730688
C                8.5462312208        9.3294113188        9.8076290405
C                7.1823999516        8.8862748337        9.8077148757
C                7.1823999516        7.4522759463        9.8077148757
C                8.5462312208        7.0091394712        9.8076290405
H               10.4752993693        8.1692753900        9.7916908840
H                8.8818985222       10.3624161168        9.7917895534
H                6.3036792608        9.5247456298        9.7919571496
H                6.3036792608        6.8138051602        9.7919571496
H                8.8818985222        5.9761346732        9.7917895534
C                9.3890909213        8.1692753900        6.5309777112
C                8.5462312208        9.3294113188        6.5309217395
C                7.1823999516        8.8862748337        6.5308359043
C                7.1823999516        7.4522759463        6.5308359043
C                8.5462312208        7.0091394712        6.5309217395
H               10.4752993693        8.1692753900        6.5468598960
H                8.8818985222       10.3624161168        6.5467612266
H                6.3036792608        9.5247456298        6.5465936304
H                6.3036792608        6.8138051602        6.5465936304
H                8.8818985222        5.9761346732        6.5467612266



     Writing config-only to output data dir /home/duets/qe_workdirs/ferrocene_pbed3/ferrocene_pbed3.save/ :
     XML data file
     NEW-OLD atomic charge density approx. for the potential

     negative rho (up, down):  3.676E-03 0.000E+00

     total cpu time spent up to now is     3028.0 secs

     Self-consistent Calculation

     iteration #  1     ecut=    90.00 Ry     beta= 0.30
     Davidson diagonalization with overlap
     ethr =  1.00E-06,  avg # of iterations =  2.0

     Threshold (ethr) on eigenvalues was too large:
     Diagonalizing with lowered threshold

     Davidson diagonalization with overlap
     ethr =  6.29E-09,  avg # of iterations =  7.0

     negative rho (up, down):  3.676E-03 0.000E+00

     total cpu time spent up to now is     3118.7 secs

     total energy              =    -525.39736471 Ry
     estimated scf accuracy    <       0.00000194 Ry

     iteration #  2     ecut=    90.00 Ry     beta= 0.30
     Davidson diagonalization with overlap
     ethr =  2.93E-09,  avg # of iterations =  2.0

     negative rho (up, down):  3.676E-03 0.000E+00

     total cpu time spent up to now is     3166.3 secs

     total energy              =    -525.39736462 Ry
     estimated scf accuracy    <       0.00000070 Ry

     iteration #  3     ecut=    90.00 Ry     beta= 0.30
     Davidson diagonalization with overlap
     ethr =  1.06E-09,  avg # of iterations =  5.0

     negative rho (up, down):  3.676E-03 0.000E+00

     total cpu time spent up to now is     3216.0 secs

     total energy              =    -525.39736486 Ry
     estimated scf accuracy    <       0.00000009 Ry

     iteration #  4     ecut=    90.00 Ry     beta= 0.30
     Davidson diagonalization with overlap
     ethr =  1.35E-10,  avg # of iterations =  5.0

     negative rho (up, down):  3.676E-03 0.000E+00

     total cpu time spent up to now is     3262.8 secs

     total energy              =    -525.39736491 Ry
     estimated scf accuracy    <       0.00000005 Ry

     iteration #  5     ecut=    90.00 Ry     beta= 0.30
     Davidson diagonalization with overlap
     ethr =  7.43E-11,  avg # of iterations =  7.0

     negative rho (up, down):  3.676E-03 0.000E+00

     total cpu time spent up to now is     3310.8 secs

     total energy              =    -525.39736478 Ry
     estimated scf accuracy    <       0.00000081 Ry

     iteration #  6     ecut=    90.00 Ry     beta= 0.30
     Davidson diagonalization with overlap
     ethr =  7.43E-11,  avg # of iterations =  9.0

     negative rho (up, down):  3.676E-03 0.000E+00

     total cpu time spent up to now is     3362.8 secs

     total energy              =    -525.39736493 Ry
     estimated scf accuracy    <       0.00000030 Ry

     iteration #  7     ecut=    90.00 Ry     beta= 0.30
     Davidson diagonalization with overlap
     ethr =  7.43E-11,  avg # of iterations =  1.0

     negative rho (up, down):  3.676E-03 0.000E+00

     total cpu time spent up to now is     3405.2 secs

     total energy              =    -525.39736488 Ry
     estimated scf accuracy    <       0.00000023 Ry

     iteration #  8     ecut=    90.00 Ry     beta= 0.30
     Davidson diagonalization with overlap
     ethr =  7.43E-11,  avg # of iterations =  6.0

     negative rho (up, down):  3.676E-03 0.000E+00

     total cpu time spent up to now is     3450.5 secs

     total energy              =    -525.39736492 Ry
     estimated scf accuracy    <       0.00000004 Ry

     iteration #  9     ecut=    90.00 Ry     beta= 0.30
     Davidson diagonalization with overlap
     ethr =  6.44E-11,  avg # of iterations =  2.0

     negative rho (up, down):  3.676E-03 0.000E+00

     total cpu time spent up to now is     3496.7 secs

     total energy              =    -525.39736492 Ry
     estimated scf accuracy    <       0.00000001 Ry

     iteration # 10     ecut=    90.00 Ry     beta= 0.30
     Davidson diagonalization with overlap
     ethr =  1.62E-11,  avg # of iterations =  5.0

     negative rho (up, down):  3.676E-03 0.000E+00

     total cpu time spent up to now is     3545.7 secs

     total energy              =    -525.39736492 Ry
     estimated scf accuracy    <       0.00000001 Ry

     iteration # 11     ecut=    90.00 Ry     beta= 0.30
     Davidson diagonalization with overlap
     ethr =  1.62E-11,  avg # of iterations =  1.0

     negative rho (up, down):  3.676E-03 0.000E+00

     total cpu time spent up to now is     3588.0 secs

     total energy              =    -525.39736492 Ry
     estimated scf accuracy    <          7.6E-09 Ry

     iteration # 12     ecut=    90.00 Ry     beta= 0.30
     Davidson diagonalization with overlap
     ethr =  1.15E-11,  avg # of iterations =  2.0

     negative rho (up, down):  3.676E-03 0.000E+00

     total cpu time spent up to now is     3628.6 secs

     total energy              =    -525.39736492 Ry
     estimated scf accuracy    <          4.4E-09 Ry

     iteration # 13     ecut=    90.00 Ry     beta= 0.30
     Davidson diagonalization with overlap
     ethr =  6.68E-12,  avg # of iterations =  5.0

     negative rho (up, down):  3.676E-03 0.000E+00

     total cpu time spent up to now is     3676.2 secs

     total energy              =    -525.39736492 Ry
     estimated scf accuracy    <          3.9E-10 Ry

     iteration # 14     ecut=    90.00 Ry     beta= 0.30
     Davidson diagonalization with overlap
     ethr =  5.98E-13,  avg # of iterations =  5.0

     negative rho (up, down):  3.676E-03 0.000E+00

     total cpu time spent up to now is     3719.8 secs

     total energy              =    -525.39736492 Ry
     estimated scf accuracy    <          1.9E-10 Ry

     iteration # 15     ecut=    90.00 Ry     beta= 0.30
     Davidson diagonalization with overlap
     ethr =  2.83E-13,  avg # of iterations =  4.0

     negative rho (up, down):  3.676E-03 0.000E+00

     total cpu time spent up to now is     3759.8 secs

     total energy              =    -525.39736492 Ry
     estimated scf accuracy    <          2.1E-10 Ry

     iteration # 16     ecut=    90.00 Ry     beta= 0.30
     Davidson diagonalization with overlap
     ethr =  2.83E-13,  avg # of iterations =  3.0

     negative rho (up, down):  3.676E-03 0.000E+00

     total cpu time spent up to now is     3800.5 secs

     End of self-consistent calculation

          k = 0.0000 0.0000 0.0000 (212139 PWs)   bands (ev):

   -90.1249 -56.9298 -55.9195 -55.9195 -22.1437 -21.6736 -17.5089 -17.5089
   -17.4880 -17.4880 -13.3528 -13.3527 -13.1336 -13.1209 -13.1208 -12.7816
   -10.1452  -9.9400  -9.9400  -9.6304  -9.6304  -9.1649  -9.1649  -9.0274
    -9.0274  -8.7498  -6.6470  -6.6469  -6.1975  -6.1974  -4.4484  -4.3203
    -4.3203

     highest occupied level (ev):    -4.3203

!    total energy              =    -525.39736492 Ry
     estimated scf accuracy    <          7.7E-11 Ry

     The total energy is the sum of the following terms:
     one-electron contribution =   -2334.76200218 Ry
     hartree contribution      =    1171.51303236 Ry
     xc contribution           =     -88.23296262 Ry
     ewald contribution        =     863.92588308 Ry
     DFT-D3 Dispersion         =      -0.02560992 Ry
     one-center paw contrib.   =    -137.81570564 Ry

     convergence has been achieved in  16 iterations

     negative rho (up, down):  3.676E-03 0.000E+00

     Forces acting on atoms (cartesian axes, Ry/au):

     atom    1 type  2   force =    -0.00002040    0.00000000    0.00000000
     atom    2 type  1   force =     0.00007546    0.00000000   -0.00035423
     atom    3 type  1   force =    -0.00003161   -0.00000947   -0.00035975
     atom    4 type  1   force =     0.00000946    0.00002790   -0.00036044
     atom    5 type  1   force =     0.00000946   -0.00002790   -0.00036044
     atom    6 type  1   force =    -0.00003161    0.00000947   -0.00035975
     atom    7 type  3   force =     0.00002072    0.00000000   -0.00037658
     atom    8 type  3   force =     0.00001996    0.00006042   -0.00037549
     atom    9 type  3   force =    -0.00004081    0.00002529   -0.00037438
     atom   10 type  3   force =    -0.00004081   -0.00002529   -0.00037438
     atom   11 type  3   force =     0.00001996   -0.00006042   -0.00037549
     atom   12 type  1   force =     0.00007546    0.00000000    0.00035423
     atom   13 type  1   force =    -0.00003161   -0.00000947    0.00035975
     atom   14 type  1   force =     0.00000946    0.00002790    0.00036044
     atom   15 type  1   force =     0.00000946   -0.00002790    0.00036044
     atom   16 type  1   force =    -0.00003161    0.00000947    0.00035975
     atom   17 type  3   force =     0.00002072    0.00000000    0.00037658
     atom   18 type  3   force =     0.00001996    0.00006042    0.00037549
     atom   19 type  3   force =    -0.00004081    0.00002529    0.00037438
     atom   20 type  3   force =    -0.00004081   -0.00002529    0.00037438
     atom   21 type  3   force =     0.00001996   -0.00006042    0.00037549

     Total force =     0.001656     Total SCF correction =     0.000008
     Energy error            =      7.7E-06 Ry
     Gradient error          =      3.8E-04 Ry/Bohr

     number of scf cycles    =   4
     number of bfgs steps    =   3

     energy             old  =    -525.3973572402 Ry
     energy             new  =    -525.3973649211 Ry

     CASE: energy            _new < energy            _old

     new trust radius        =       0.0017579083 bohr
     new conv_thr            =            1.0E-10 Ry


ATOMIC_POSITIONS (angstrom)
Fe               8.1691825183        8.1692753900        8.1692753900
C                9.3891463848        8.1692753900        9.8066450983
C                8.5462176389        9.3294198491        9.8066995501
C                7.1823946816        8.8862929733        9.8067848225
C                7.1823946816        7.4522578067        9.8067848225
C                8.5462176389        7.0091309409        9.8066995501
H               10.4752881374        8.1692753900        9.7910076890
H                8.8819038998       10.3624394114        9.7911100071
H                6.3036667190        9.5247483723        9.7912825904
H                6.3036667190        6.8138024177        9.7912825904
H                8.8819038998        5.9761113786        9.7911100071
C                9.3891463848        8.1692753900        6.5319056817
C                8.5462176389        9.3294198491        6.5318512299
C                7.1823946816        8.8862929733        6.5317659575
C                7.1823946816        7.4522578067        6.5317659575
C                8.5462176389        7.0091309409        6.5318512299
H               10.4752881374        8.1692753900        6.5475430910
H                8.8819038998       10.3624394114        6.5474407729
H                6.3036667190        9.5247483723        6.5472681896
H                6.3036667190        6.8138024177        6.5472681896
H                8.8819038998        5.9761113786        6.5474407729



     Writing config-only to output data dir /home/duets/qe_workdirs/ferrocene_pbed3/ferrocene_pbed3.save/ :
     XML data file
     NEW-OLD atomic charge density approx. for the potential

     negative rho (up, down):  3.678E-03 0.000E+00

     total cpu time spent up to now is     3853.8 secs

     Self-consistent Calculation

     iteration #  1     ecut=    90.00 Ry     beta= 0.30
     Davidson diagonalization with overlap
     ethr =  1.00E-06,  avg # of iterations =  3.0

     Threshold (ethr) on eigenvalues was too large:
     Diagonalizing with lowered threshold

     Davidson diagonalization with overlap
     ethr =  5.46E-09,  avg # of iterations =  9.0

     negative rho (up, down):  3.678E-03 0.000E+00

     total cpu time spent up to now is     3953.4 secs

     total energy              =    -525.39737414 Ry
     estimated scf accuracy    <       0.00000491 Ry

     iteration #  2     ecut=    90.00 Ry     beta= 0.30
     Davidson diagonalization with overlap
     ethr =  7.45E-09,  avg # of iterations =  2.0

     negative rho (up, down):  3.677E-03 0.000E+00

     total cpu time spent up to now is     4001.6 secs

     total energy              =    -525.39737370 Ry
     estimated scf accuracy    <       0.00000176 Ry

     iteration #  3     ecut=    90.00 Ry     beta= 0.30
     Davidson diagonalization with overlap
     ethr =  2.67E-09,  avg # of iterations =  5.0

     negative rho (up, down):  3.677E-03 0.000E+00

     total cpu time spent up to now is     4045.6 secs

     total energy              =    -525.39737578 Ry
     estimated scf accuracy    <       0.00000107 Ry

     iteration #  4     ecut=    90.00 Ry     beta= 0.30
     Davidson diagonalization with overlap
     ethr =  1.63E-09,  avg # of iterations =  6.0

     negative rho (up, down):  3.678E-03 0.000E+00

     total cpu time spent up to now is     4095.2 secs

     total energy              =    -525.39737582 Ry
     estimated scf accuracy    <       0.00003078 Ry

     iteration #  5     ecut=    90.00 Ry     beta= 0.30
     Davidson diagonalization with overlap
     ethr =  1.63E-09,  avg # of iterations =  5.0

     negative rho (up, down):  3.677E-03 0.000E+00

     total cpu time spent up to now is     4139.9 secs

     total energy              =    -525.39737453 Ry
     estimated scf accuracy    <       0.00001644 Ry

     iteration #  6     ecut=    90.00 Ry     beta= 0.30
     Davidson diagonalization with overlap
     ethr =  1.63E-09,  avg # of iterations =  5.0

     negative rho (up, down):  3.677E-03 0.000E+00

     total cpu time spent up to now is     4183.6 secs

     total energy              =    -525.39737359 Ry
     estimated scf accuracy    <       0.00000642 Ry

     iteration #  7     ecut=    90.00 Ry     beta= 0.30
     Davidson diagonalization with overlap
     ethr =  1.63E-09,  avg # of iterations =  7.0

     negative rho (up, down):  3.677E-03 0.000E+00

     total cpu time spent up to now is     4231.9 secs

     total energy              =    -525.39737440 Ry
     estimated scf accuracy    <       0.00000012 Ry

     iteration #  8     ecut=    90.00 Ry     beta= 0.30
     Davidson diagonalization with overlap
     ethr =  1.81E-10,  avg # of iterations =  5.0

     negative rho (up, down):  3.677E-03 0.000E+00

     total cpu time spent up to now is     4276.4 secs

     total energy              =    -525.39737444 Ry
     estimated scf accuracy    <       0.00000031 Ry

     iteration #  9     ecut=    90.00 Ry     beta= 0.30
     Davidson diagonalization with overlap
     ethr =  1.81E-10,  avg # of iterations =  1.0

     negative rho (up, down):  3.677E-03 0.000E+00

     total cpu time spent up to now is     4325.2 secs

     total energy              =    -525.39737437 Ry
     estimated scf accuracy    <       0.00000030 Ry

     iteration # 10     ecut=    90.00 Ry     beta= 0.30
     Davidson diagonalization with overlap
     ethr =  1.81E-10,  avg # of iterations =  5.0

     negative rho (up, down):  3.677E-03 0.000E+00

     total cpu time spent up to now is     4368.6 secs

     total energy              =    -525.39737440 Ry
     estimated scf accuracy    <       0.00000006 Ry

     iteration # 11     ecut=    90.00 Ry     beta= 0.30
     Davidson diagonalization with overlap
     ethr =  9.13E-11,  avg # of iterations =  5.0

     negative rho (up, down):  3.677E-03 0.000E+00

     total cpu time spent up to now is     4414.5 secs

     total energy              =    -525.39737441 Ry
     estimated scf accuracy    <       0.00000002 Ry

     iteration # 12     ecut=    90.00 Ry     beta= 0.30
     Davidson diagonalization with overlap
     ethr =  3.54E-11,  avg # of iterations =  2.0

     negative rho (up, down):  3.677E-03 0.000E+00

     total cpu time spent up to now is     4457.3 secs

     total energy              =    -525.39737440 Ry
     estimated scf accuracy    <       0.00000002 Ry

     iteration # 13     ecut=    90.00 Ry     beta= 0.30
     Davidson diagonalization with overlap
     ethr =  3.54E-11,  avg # of iterations =  5.0

     negative rho (up, down):  3.677E-03 0.000E+00

     total cpu time spent up to now is     4515.5 secs

     total energy              =    -525.39737440 Ry
     estimated scf accuracy    <       0.00000003 Ry

     iteration # 14     ecut=    90.00 Ry     beta= 0.30
     Davidson diagonalization with overlap
     ethr =  3.54E-11,  avg # of iterations =  2.0

     negative rho (up, down):  3.677E-03 0.000E+00

     total cpu time spent up to now is     4558.0 secs

     total energy              =    -525.39737440 Ry
     estimated scf accuracy    <       0.00000002 Ry

     iteration # 15     ecut=    90.00 Ry     beta= 0.30
     Davidson diagonalization with overlap
     ethr =  3.48E-11,  avg # of iterations =  2.0

     negative rho (up, down):  3.677E-03 0.000E+00

     total cpu time spent up to now is     4609.4 secs

     total energy              =    -525.39737440 Ry
     estimated scf accuracy    <          5.8E-09 Ry

     iteration # 16     ecut=    90.00 Ry     beta= 0.30
     Davidson diagonalization with overlap
     ethr =  8.80E-12,  avg # of iterations =  4.0

     negative rho (up, down):  3.677E-03 0.000E+00

     total cpu time spent up to now is     4655.7 secs

     total energy              =    -525.39737440 Ry
     estimated scf accuracy    <          5.2E-10 Ry

     iteration # 17     ecut=    90.00 Ry     beta= 0.30
     Davidson diagonalization with overlap
     ethr =  7.95E-13,  avg # of iterations =  6.0

     negative rho (up, down):  3.677E-03 0.000E+00

     total cpu time spent up to now is     4700.0 secs

     total energy              =    -525.39737440 Ry
     estimated scf accuracy    <          4.4E-10 Ry

     iteration # 18     ecut=    90.00 Ry     beta= 0.30
     Davidson diagonalization with overlap
     ethr =  6.70E-13,  avg # of iterations =  5.0

     negative rho (up, down):  3.677E-03 0.000E+00

     total cpu time spent up to now is     4744.9 secs

     total energy              =    -525.39737440 Ry
     estimated scf accuracy    <          1.4E-09 Ry

     iteration # 19     ecut=    90.00 Ry     beta= 0.30
     Davidson diagonalization with overlap
     ethr =  6.70E-13,  avg # of iterations =  3.0

     negative rho (up, down):  3.677E-03 0.000E+00

     total cpu time spent up to now is     4787.4 secs

     total energy              =    -525.39737440 Ry
     estimated scf accuracy    <          6.3E-10 Ry

     iteration # 20     ecut=    90.00 Ry     beta= 0.30
     Davidson diagonalization with overlap
     ethr =  6.70E-13,  avg # of iterations =  2.0

     negative rho (up, down):  3.677E-03 0.000E+00

     total cpu time spent up to now is     4831.9 secs

     total energy              =    -525.39737440 Ry
     estimated scf accuracy    <          3.0E-10 Ry

     iteration # 21     ecut=    90.00 Ry     beta= 0.30
     Davidson diagonalization with overlap
     ethr =  4.56E-13,  avg # of iterations =  2.0

     negative rho (up, down):  3.677E-03 0.000E+00

     total cpu time spent up to now is     4873.3 secs

     total energy              =    -525.39737440 Ry
     estimated scf accuracy    <          2.0E-10 Ry

     iteration # 22     ecut=    90.00 Ry     beta= 0.30
     Davidson diagonalization with overlap
     ethr =  3.04E-13,  avg # of iterations =  4.0

     negative rho (up, down):  3.677E-03 0.000E+00

     total cpu time spent up to now is     4914.5 secs

     End of self-consistent calculation

          k = 0.0000 0.0000 0.0000 (212139 PWs)   bands (ev):

   -90.1265 -56.9310 -55.9215 -55.9215 -22.1448 -21.6732 -17.5096 -17.5095
   -17.4886 -17.4885 -13.3534 -13.3534 -13.1346 -13.1206 -13.1206 -12.7814
   -10.1454  -9.9422  -9.9421  -9.6310  -9.6309  -9.1655  -9.1653  -9.0274
    -9.0271  -8.7475  -6.6468  -6.6467  -6.1984  -6.1983  -4.4496  -4.3235
    -4.3234

     highest occupied level (ev):    -4.3234

!    total energy              =    -525.39737440 Ry
     estimated scf accuracy    <          1.3E-11 Ry

     The total energy is the sum of the following terms:
     one-electron contribution =   -2335.14861971 Ry
     hartree contribution      =    1171.70580671 Ry
     xc contribution           =     -88.23461970 Ry
     ewald contribution        =     864.12142556 Ry
     DFT-D3 Dispersion         =      -0.02561993 Ry
     one-center paw contrib.   =    -137.81574733 Ry

     convergence has been achieved in  22 iterations

     negative rho (up, down):  3.677E-03 0.000E+00

     Forces acting on atoms (cartesian axes, Ry/au):

     atom    1 type  2   force =    -0.00002360    0.00000000    0.00000000
     atom    2 type  1   force =    -0.00003602    0.00000000   -0.00014811
     atom    3 type  1   force =     0.00005714    0.00006451   -0.00014786
     atom    4 type  1   force =    -0.00005157    0.00002159   -0.00015098
     atom    5 type  1   force =    -0.00005157   -0.00002159   -0.00015098
     atom    6 type  1   force =     0.00005714   -0.00006451   -0.00014786
     atom    7 type  3   force =     0.00011486    0.00000000   -0.00040328
     atom    8 type  3   force =     0.00001143    0.00004771   -0.00040219
     atom    9 type  3   force =    -0.00005052    0.00003521   -0.00040203
     atom   10 type  3   force =    -0.00005052   -0.00003521   -0.00040203
     atom   11 type  3   force =     0.00001143   -0.00004771   -0.00040219
     atom   12 type  1   force =    -0.00003602    0.00000000    0.00014811
     atom   13 type  1   force =     0.00005714    0.00006451    0.00014786
     atom   14 type  1   force =    -0.00005157    0.00002159    0.00015098
     atom   15 type  1   force =    -0.00005157   -0.00002159    0.00015098
     atom   16 type  1   force =     0.00005714   -0.00006451    0.00014786
     atom   17 type  3   force =     0.00011486    0.00000000    0.00040328
     atom   18 type  3   force =     0.00001143    0.00004771    0.00040219
     atom   19 type  3   force =    -0.00005052    0.00003521    0.00040203
     atom   20 type  3   force =    -0.00005052   -0.00003521    0.00040203
     atom   21 type  3   force =     0.00001143   -0.00004771    0.00040219

     Total force =     0.001392     Total SCF correction =     0.000004
     Energy error            =      9.5E-06 Ry
     Gradient error          =      4.0E-04 Ry/Bohr

     number of scf cycles    =   5
     number of bfgs steps    =   4

     energy             old  =    -525.3973649211 Ry
     energy             new  =    -525.3973743997 Ry

     CASE: energy            _new < energy            _old

     new trust radius        =       0.0026368625 bohr
     new conv_thr            =            1.0E-10 Ry


ATOMIC_POSITIONS (angstrom)
Fe               8.1691938677        8.1692753900        8.1692753900
C                9.3891367027        8.1692753900        9.8052530437
C                8.5462799393        9.3295052979        9.8053097676
C                7.1823267028        8.8863211663        9.8053913970
C                7.1823267028        7.4522296137        9.8053913970
C                8.5462799393        7.0090454921        9.8053097676
H               10.4753646934        8.1692753900        9.7897876358
H                8.8819066644       10.3624719327        9.7898960766
H                6.3036333585        9.5247644095        9.7900760530
H                6.3036333585        6.8137863805        9.7900760530
H                8.8819066644        5.9760788573        9.7898960766
C                9.3891367027        8.1692753900        6.5332977363
C                8.5462799393        9.3295052979        6.5332410124
C                7.1823267028        8.8863211663        6.5331593830
C                7.1823267028        7.4522296137        6.5331593830
C                8.5462799393        7.0090454921        6.5332410124
H               10.4753646934        8.1692753900        6.5487631442
H                8.8819066644       10.3624719327        6.5486547034
H                6.3036333585        9.5247644095        6.5484747270
H                6.3036333585        6.8137863805        6.5484747270
H                8.8819066644        5.9760788573        6.5486547034



     Writing config-only to output data dir /home/duets/qe_workdirs/ferrocene_pbed3/ferrocene_pbed3.save/ :
     XML data file
     NEW-OLD atomic charge density approx. for the potential

     negative rho (up, down):  3.680E-03 0.000E+00

     total cpu time spent up to now is     4970.9 secs

     Self-consistent Calculation

     iteration #  1     ecut=    90.00 Ry     beta= 0.30
     Davidson diagonalization with overlap
     ethr =  1.00E-06,  avg # of iterations =  4.0

     Threshold (ethr) on eigenvalues was too large:
     Diagonalizing with lowered threshold

     Davidson diagonalization with overlap
     ethr =  1.50E-08,  avg # of iterations =  8.0

     negative rho (up, down):  3.680E-03 0.000E+00

     total cpu time spent up to now is     5061.5 secs

     total energy              =    -525.39738284 Ry
     estimated scf accuracy    <       0.00001313 Ry

     iteration #  2     ecut=    90.00 Ry     beta= 0.30
     Davidson diagonalization with overlap
     ethr =  1.99E-08,  avg # of iterations =  4.0

     negative rho (up, down):  3.680E-03 0.000E+00

     total cpu time spent up to now is     5105.8 secs

     total energy              =    -525.39738267 Ry
     estimated scf accuracy    <       0.00000635 Ry

     iteration #  3     ecut=    90.00 Ry     beta= 0.30
     Davidson diagonalization with overlap
     ethr =  9.62E-09,  avg # of iterations =  5.0

     negative rho (up, down):  3.679E-03 0.000E+00

     total cpu time spent up to now is     5152.6 secs

     total energy              =    -525.39738301 Ry
     estimated scf accuracy    <       0.00000403 Ry

     iteration #  4     ecut=    90.00 Ry     beta= 0.30
     Davidson diagonalization with overlap
     ethr =  6.11E-09,  avg # of iterations =  4.0

     negative rho (up, down):  3.679E-03 0.000E+00

     total cpu time spent up to now is     5198.0 secs

     total energy              =    -525.39738373 Ry
     estimated scf accuracy    <       0.00000036 Ry

     iteration #  5     ecut=    90.00 Ry     beta= 0.30
     Davidson diagonalization with overlap
     ethr =  5.50E-10,  avg # of iterations =  7.0

     negative rho (up, down):  3.679E-03 0.000E+00

     total cpu time spent up to now is     5260.4 secs

     total energy              =    -525.39738386 Ry
     estimated scf accuracy    <       0.00000078 Ry

     iteration #  6     ecut=    90.00 Ry     beta= 0.30
     Davidson diagonalization with overlap
     ethr =  5.50E-10,  avg # of iterations =  5.0

     negative rho (up, down):  3.679E-03 0.000E+00

     total cpu time spent up to now is     5303.4 secs

     total energy              =    -525.39738398 Ry
     estimated scf accuracy    <       0.00000003 Ry

     iteration #  7     ecut=    90.00 Ry     beta= 0.30
     Davidson diagonalization with overlap
     ethr =  5.03E-11,  avg # of iterations =  6.0

     negative rho (up, down):  3.679E-03 0.000E+00

     total cpu time spent up to now is     5350.0 secs

     total energy              =    -525.39738400 Ry
     estimated scf accuracy    <       0.00000001 Ry

     iteration #  8     ecut=    90.00 Ry     beta= 0.30
     Davidson diagonalization with overlap
     ethr =  1.83E-11,  avg # of iterations =  5.0

     negative rho (up, down):  3.679E-03 0.000E+00

     total cpu time spent up to now is     5401.2 secs

     total energy              =    -525.39738400 Ry
     estimated scf accuracy    <       0.00000001 Ry

     iteration #  9     ecut=    90.00 Ry     beta= 0.30
     Davidson diagonalization with overlap
     ethr =  1.52E-11,  avg # of iterations =  5.0

     negative rho (up, down):  3.679E-03 0.000E+00

     total cpu time spent up to now is     5444.9 secs

     total energy              =    -525.39738400 Ry
     estimated scf accuracy    <          3.7E-09 Ry

     iteration # 10     ecut=    90.00 Ry     beta= 0.30
     Davidson diagonalization with overlap
     ethr =  5.68E-12,  avg # of iterations =  5.0

     negative rho (up, down):  3.679E-03 0.000E+00

     total cpu time spent up to now is     5491.7 secs

     total energy              =    -525.39738400 Ry
     estimated scf accuracy    <          2.2E-10 Ry

     iteration # 11     ecut=    90.00 Ry     beta= 0.30
     Davidson diagonalization with overlap
     ethr =  3.31E-13,  avg # of iterations =  8.0

     negative rho (up, down):  3.679E-03 0.000E+00

     total cpu time spent up to now is     5545.3 secs

     total energy              =    -525.39738401 Ry
     estimated scf accuracy    <          7.2E-10 Ry

     iteration # 12     ecut=    90.00 Ry     beta= 0.30
     Davidson diagonalization with overlap
     ethr =  3.31E-13,  avg # of iterations =  2.0

     negative rho (up, down):  3.679E-03 0.000E+00

     total cpu time spent up to now is     5587.5 secs

     total energy              =    -525.39738401 Ry
     estimated scf accuracy    <          5.6E-10 Ry

     iteration # 13     ecut=    90.00 Ry     beta= 0.30
     Davidson diagonalization with overlap
     ethr =  3.31E-13,  avg # of iterations =  6.0

     negative rho (up, down):  3.679E-03 0.000E+00

     total cpu time spent up to now is     5632.3 secs

     End of self-consistent calculation

          k = 0.0000 0.0000 0.0000 (212139 PWs)   bands (ev):

   -90.1287 -56.9328 -55.9246 -55.9246 -22.1459 -21.6720 -17.5105 -17.5104
   -17.4893 -17.4893 -13.3546 -13.3543 -13.1360 -13.1205 -13.1201 -12.7811
   -10.1454  -9.9453  -9.9451  -9.6321  -9.6318  -9.1664  -9.1660  -9.0273
    -9.0269  -8.7438  -6.6467  -6.6465  -6.1998  -6.1996  -4.4513  -4.3283
    -4.3283

     highest occupied level (ev):    -4.3283

!    total energy              =    -525.39738400 Ry
     estimated scf accuracy    <          3.6E-11 Ry

     The total energy is the sum of the following terms:
     one-electron contribution =   -2335.71421736 Ry
     hartree contribution      =    1171.98748415 Ry
     xc contribution           =     -88.23667794 Ry
     ewald contribution        =     864.40745790 Ry
     DFT-D3 Dispersion         =      -0.02563592 Ry
     one-center paw contrib.   =    -137.81579484 Ry

     convergence has been achieved in  13 iterations

     negative rho (up, down):  3.679E-03 0.000E+00

     Forces acting on atoms (cartesian axes, Ry/au):

     atom    1 type  2   force =    -0.00005804    0.00000000    0.00000000
     atom    2 type  1   force =     0.00021613    0.00000000    0.00015648
     atom    3 type  1   force =    -0.00011160   -0.00004867    0.00014315
     atom    4 type  1   force =     0.00005490    0.00003129    0.00014470
     atom    5 type  1   force =     0.00005490   -0.00003129    0.00014470
     atom    6 type  1   force =    -0.00011160    0.00004867    0.00014315
     atom    7 type  3   force =     0.00001697    0.00000000   -0.00042537
     atom    8 type  3   force =     0.00005138    0.00013513   -0.00042653
     atom    9 type  3   force =    -0.00009672    0.00006674   -0.00042878
     atom   10 type  3   force =    -0.00009672   -0.00006674   -0.00042878
     atom   11 type  3   force =     0.00005138   -0.00013513   -0.00042653
     atom   12 type  1   force =     0.00021613    0.00000000   -0.00015648
     atom   13 type  1   force =    -0.00011160   -0.00004867   -0.00014315
     atom   14 type  1   force =     0.00005490    0.00003129   -0.00014470
     atom   15 type  1   force =     0.00005490   -0.00003129   -0.00014470
     atom   16 type  1   force =    -0.00011160    0.00004867   -0.00014315
     atom   17 type  3   force =     0.00001697    0.00000000    0.00042537
     atom   18 type  3   force =     0.00005138    0.00013513    0.00042653
     atom   19 type  3   force =    -0.00009672    0.00006674    0.00042878
     atom   20 type  3   force =    -0.00009672   -0.00006674    0.00042878
     atom   21 type  3   force =     0.00005138   -0.00013513    0.00042653

     Total force =     0.001533     Total SCF correction =     0.000010
     Energy error            =      9.6E-06 Ry
     Gradient error          =      4.3E-04 Ry/Bohr

     number of scf cycles    =   6
     number of bfgs steps    =   5

     energy             old  =    -525.3973743997 Ry
     energy             new  =    -525.3973840049 Ry

     CASE: energy            _new < energy            _old

     new trust radius        =       0.0026878572 bohr
     new conv_thr            =            1.0E-10 Ry


ATOMIC_POSITIONS (angstrom)
Fe               8.1691788158        8.1692753900        8.1692753900
C                9.3893288314        8.1692753900        9.8040212115
C                8.5462227347        9.3295220320        9.8040699133
C                7.1823269232        8.8863575085        9.8041507772
C                7.1823269232        7.4521932715        9.8041507772
C                8.5462227347        7.0090287580        9.8040699133
H               10.4753832375        8.1692753900        9.7883654039
H                8.8819425737       10.3625816909        9.7884786705
H                6.3035528599        9.5248125264        9.7886645124
H                6.3035528599        6.8137382636        9.7886645124
H                8.8819425737        5.9759690991        9.7884786705
C                9.3893288314        8.1692753900        6.5345295685
C                8.5462227347        9.3295220320        6.5344808667
C                7.1823269232        8.8863575085        6.5344000028
C                7.1823269232        7.4521932715        6.5344000028
C                8.5462227347        7.0090287580        6.5344808667
H               10.4753832375        8.1692753900        6.5501853761
H                8.8819425737       10.3625816909        6.5500721095
H                6.3035528599        9.5248125264        6.5498862676
H                6.3035528599        6.8137382636        6.5498862676
H                8.8819425737        5.9759690991        6.5500721095



     Writing config-only to output data dir /home/duets/qe_workdirs/ferrocene_pbed3/ferrocene_pbed3.save/ :
     XML data file
     NEW-OLD atomic charge density approx. for the potential

     negative rho (up, down):  3.681E-03 0.000E+00

     total cpu time spent up to now is     5683.3 secs

     Self-consistent Calculation

     iteration #  1     ecut=    90.00 Ry     beta= 0.30
     Davidson diagonalization with overlap
     ethr =  1.00E-06,  avg # of iterations =  3.0

     Threshold (ethr) on eigenvalues was too large:
     Diagonalizing with lowered threshold

     Davidson diagonalization with overlap
     ethr =  1.46E-08,  avg # of iterations =  8.0

     negative rho (up, down):  3.681E-03 0.000E+00

     total cpu time spent up to now is     5772.3 secs

     total energy              =    -525.39738820 Ry
     estimated scf accuracy    <       0.00001252 Ry

     iteration #  2     ecut=    90.00 Ry     beta= 0.30
     Davidson diagonalization with overlap
     ethr =  1.90E-08,  avg # of iterations =  4.0

     negative rho (up, down):  3.681E-03 0.000E+00

     total cpu time spent up to now is     5817.3 secs

     total energy              =    -525.39738816 Ry
     estimated scf accuracy    <       0.00000600 Ry

     iteration #  3     ecut=    90.00 Ry     beta= 0.30
     Davidson diagonalization with overlap
     ethr =  9.10E-09,  avg # of iterations =  5.0

     negative rho (up, down):  3.681E-03 0.000E+00

     total cpu time spent up to now is     5861.6 secs

     total energy              =    -525.39738844 Ry
     estimated scf accuracy    <       0.00000364 Ry

     iteration #  4     ecut=    90.00 Ry     beta= 0.30
     Davidson diagonalization with overlap
     ethr =  5.52E-09,  avg # of iterations =  4.0

     negative rho (up, down):  3.681E-03 0.000E+00

     total cpu time spent up to now is     5904.1 secs

     total energy              =    -525.39738908 Ry
     estimated scf accuracy    <       0.00000034 Ry

     iteration #  5     ecut=    90.00 Ry     beta= 0.30
     Davidson diagonalization with overlap
     ethr =  5.16E-10,  avg # of iterations =  7.0

     negative rho (up, down):  3.680E-03 0.000E+00

     total cpu time spent up to now is     5949.9 secs

     total energy              =    -525.39738917 Ry
     estimated scf accuracy    <       0.00000049 Ry

     iteration #  6     ecut=    90.00 Ry     beta= 0.30
     Davidson diagonalization with overlap
     ethr =  5.16E-10,  avg # of iterations =  5.0

     negative rho (up, down):  3.680E-03 0.000E+00

     total cpu time spent up to now is     6001.1 secs

     total energy              =    -525.39738926 Ry
     estimated scf accuracy    <       0.00000001 Ry

     iteration #  7     ecut=    90.00 Ry     beta= 0.30
     Davidson diagonalization with overlap
     ethr =  2.07E-11,  avg # of iterations =  8.0

     negative rho (up, down):  3.680E-03 0.000E+00

     total cpu time spent up to now is     6047.9 secs

     total energy              =    -525.39738927 Ry
     estimated scf accuracy    <       0.00000003 Ry

     iteration #  8     ecut=    90.00 Ry     beta= 0.30
     Davidson diagonalization with overlap
     ethr =  2.07E-11,  avg # of iterations =  5.0

     negative rho (up, down):  3.680E-03 0.000E+00

     total cpu time spent up to now is     6090.4 secs

     total energy              =    -525.39738927 Ry
     estimated scf accuracy    <          2.6E-09 Ry

     iteration #  9     ecut=    90.00 Ry     beta= 0.30
     Davidson diagonalization with overlap
     ethr =  3.97E-12,  avg # of iterations =  6.0

     negative rho (up, down):  3.680E-03 0.000E+00

     total cpu time spent up to now is     6139.6 secs

     total energy              =    -525.39738927 Ry
     estimated scf accuracy    <       0.00000002 Ry

     iteration # 10     ecut=    90.00 Ry     beta= 0.30
     Davidson diagonalization with overlap
     ethr =  3.97E-12,  avg # of iterations =  6.0

     negative rho (up, down):  3.680E-03 0.000E+00

     total cpu time spent up to now is     6184.2 secs

     total energy              =    -525.39738928 Ry
     estimated scf accuracy    <          4.0E-09 Ry

     iteration # 11     ecut=    90.00 Ry     beta= 0.30
     Davidson diagonalization with overlap
     ethr =  3.97E-12,  avg # of iterations =  1.0

     negative rho (up, down):  3.680E-03 0.000E+00

     total cpu time spent up to now is     6224.7 secs

     total energy              =    -525.39738928 Ry
     estimated scf accuracy    <          2.5E-09 Ry

     iteration # 12     ecut=    90.00 Ry     beta= 0.30
     Davidson diagonalization with overlap
     ethr =  3.77E-12,  avg # of iterations =  5.0

     negative rho (up, down):  3.680E-03 0.000E+00

     total cpu time spent up to now is     6279.8 secs

     total energy              =    -525.39738928 Ry
     estimated scf accuracy    <          5.4E-10 Ry

     iteration # 13     ecut=    90.00 Ry     beta= 0.30
     Davidson diagonalization with overlap
     ethr =  8.18E-13,  avg # of iterations =  2.0

     negative rho (up, down):  3.680E-03 0.000E+00

     total cpu time spent up to now is     6323.7 secs

     total energy              =    -525.39738928 Ry
     estimated scf accuracy    <          2.5E-10 Ry

     iteration # 14     ecut=    90.00 Ry     beta= 0.30
     Davidson diagonalization with overlap
     ethr =  3.78E-13,  avg # of iterations =  5.0

     negative rho (up, down):  3.680E-03 0.000E+00

     total cpu time spent up to now is     6381.7 secs

     total energy              =    -525.39738928 Ry
     estimated scf accuracy    <          2.6E-10 Ry

     iteration # 15     ecut=    90.00 Ry     beta= 0.30
     Davidson diagonalization with overlap
     ethr =  3.78E-13,  avg # of iterations =  2.0

     negative rho (up, down):  3.680E-03 0.000E+00

     total cpu time spent up to now is     6427.8 secs

     total energy              =    -525.39738928 Ry
     estimated scf accuracy    <          1.3E-10 Ry

     iteration # 16     ecut=    90.00 Ry     beta= 0.30
     Davidson diagonalization with overlap
     ethr =  1.92E-13,  avg # of iterations =  5.0

     negative rho (up, down):  3.680E-03 0.000E+00

     total cpu time spent up to now is     6471.5 secs

     End of self-consistent calculation

          k = 0.0000 0.0000 0.0000 (212139 PWs)   bands (ev):

   -90.1307 -56.9344 -55.9272 -55.9272 -22.1474 -21.6714 -17.5114 -17.5113
   -17.4902 -17.4901 -13.3557 -13.3552 -13.1371 -13.1201 -13.1197 -12.7805
   -10.1457  -9.9477  -9.9474  -9.6329  -9.6326  -9.1674  -9.1665  -9.0275
    -9.0266  -8.7409  -6.6472  -6.6469  -6.2014  -6.2010  -4.4528  -4.3326
    -4.3325

     highest occupied level (ev):    -4.3325

!    total energy              =    -525.39738927 Ry
     estimated scf accuracy    <          7.1E-11 Ry

     The total energy is the sum of the following terms:
     one-electron contribution =   -2336.23256757 Ry
     hartree contribution      =    1172.24529958 Ry
     xc contribution           =     -88.23822392 Ry
     ewald contribution        =     864.66958937 Ry
     DFT-D3 Dispersion         =      -0.02565194 Ry
     one-center paw contrib.   =    -137.81583479 Ry

     convergence has been achieved in  16 iterations

     negative rho (up, down):  3.680E-03 0.000E+00

     Forces acting on atoms (cartesian axes, Ry/au):

     atom    1 type  2   force =     0.00001491    0.00000000    0.00000000
     atom    2 type  1   force =    -0.00026350    0.00000000    0.00036886
     atom    3 type  1   force =     0.00019977    0.00013249    0.00038246
     atom    4 type  1   force =    -0.00015950    0.00005412    0.00038273
     atom    5 type  1   force =    -0.00015950   -0.00005412    0.00038273
     atom    6 type  1   force =     0.00019977   -0.00013249    0.00038246
     atom    7 type  3   force =     0.00023517    0.00000000   -0.00041992
     atom    8 type  3   force =    -0.00001128    0.00000152   -0.00041831
     atom    9 type  3   force =    -0.00001856    0.00001574   -0.00041812
     atom   10 type  3   force =    -0.00001856   -0.00001574   -0.00041812
     atom   11 type  3   force =    -0.00001128   -0.00000152   -0.00041831
     atom   12 type  1   force =    -0.00026350    0.00000000   -0.00036886
     atom   13 type  1   force =     0.00019977    0.00013249   -0.00038246
     atom   14 type  1   force =    -0.00015950    0.00005412   -0.00038273
     atom   15 type  1   force =    -0.00015950   -0.00005412   -0.00038273
     atom   16 type  1   force =     0.00019977   -0.00013249   -0.00038246
     atom   17 type  3   force =     0.00023517    0.00000000    0.00041992
     atom   18 type  3   force =    -0.00001128    0.00000152    0.00041831
     atom   19 type  3   force =    -0.00001856    0.00001574    0.00041812
     atom   20 type  3   force =    -0.00001856   -0.00001574    0.00041812
     atom   21 type  3   force =    -0.00001128   -0.00000152    0.00041831

     Total force =     0.001947     Total SCF correction =     0.000014
     Energy error            =      5.3E-06 Ry
     Gradient error          =      4.2E-04 Ry/Bohr

     number of scf cycles    =   7
     number of bfgs steps    =   6

     energy             old  =    -525.3973840049 Ry
     energy             new  =    -525.3973892747 Ry

     CASE: energy            _new < energy            _old

     new trust radius        =       0.0021665811 bohr
     new conv_thr            =            1.0E-10 Ry


ATOMIC_POSITIONS (angstrom)
Fe               8.1691776674        8.1692753900        8.1692753900
C                9.3892560346        8.1692753900        9.8034217065
C                8.5463244466        9.3296142831        9.8034756827
C                7.1822216998        8.8864128320        9.8035564764
C                7.1822216998        7.4521379480        9.8035564764
C                8.5463244466        7.0089365069        9.8034756827
H               10.4755279716        8.1692753900        9.7872280708
H                8.8819494720       10.3626267865        9.7873455771
H                6.3035137916        9.5248362640        9.7875357543
H                6.3035137916        6.8137145260        9.7875357543
H                8.8819494720        5.9759240035        9.7873455771
C                9.3892560346        8.1692753900        6.5351290735
C                8.5463244466        9.3296142831        6.5350750973
C                7.1822216998        8.8864128320        6.5349943036
C                7.1822216998        7.4521379480        6.5349943036
C                8.5463244466        7.0089365069        6.5350750973
H               10.4755279716        8.1692753900        6.5513227092
H                8.8819494720       10.3626267865        6.5512052029
H                6.3035137916        9.5248362640        6.5510150257
H                6.3035137916        6.8137145260        6.5510150257
H                8.8819494720        5.9759240035        6.5512052029



     Writing config-only to output data dir /home/duets/qe_workdirs/ferrocene_pbed3/ferrocene_pbed3.save/ :
     XML data file
     NEW-OLD atomic charge density approx. for the potential

     negative rho (up, down):  3.682E-03 0.000E+00

     total cpu time spent up to now is     6523.9 secs

     Self-consistent Calculation

     iteration #  1     ecut=    90.00 Ry     beta= 0.30
     Davidson diagonalization with overlap
     ethr =  1.00E-06,  avg # of iterations =  2.0

     Threshold (ethr) on eigenvalues was too large:
     Diagonalizing with lowered threshold

     Davidson diagonalization with overlap
     ethr =  7.27E-09,  avg # of iterations =  8.0

     negative rho (up, down):  3.682E-03 0.000E+00

     total cpu time spent up to now is     6608.9 secs

     total energy              =    -525.39739308 Ry
     estimated scf accuracy    <       0.00000401 Ry

     iteration #  2     ecut=    90.00 Ry     beta= 0.30
     Davidson diagonalization with overlap
     ethr =  6.07E-09,  avg # of iterations =  2.0

     negative rho (up, down):  3.681E-03 0.000E+00

     total cpu time spent up to now is     6663.7 secs

     total energy              =    -525.39739288 Ry
     estimated scf accuracy    <       0.00000159 Ry

     iteration #  3     ecut=    90.00 Ry     beta= 0.30
     Davidson diagonalization with overlap
     ethr =  2.41E-09,  avg # of iterations =  4.0

     negative rho (up, down):  3.681E-03 0.000E+00

     total cpu time spent up to now is     6712.6 secs

     total energy              =    -525.39739323 Ry
     estimated scf accuracy    <       0.00000019 Ry

     iteration #  4     ecut=    90.00 Ry     beta= 0.30
     Davidson diagonalization with overlap
     ethr =  2.82E-10,  avg # of iterations =  6.0

     negative rho (up, down):  3.681E-03 0.000E+00

     total cpu time spent up to now is     6758.7 secs

     total energy              =    -525.39739329 Ry
     estimated scf accuracy    <       0.00000009 Ry

     iteration #  5     ecut=    90.00 Ry     beta= 0.30
     Davidson diagonalization with overlap
     ethr =  1.41E-10,  avg # of iterations =  5.0

     negative rho (up, down):  3.681E-03 0.000E+00

     total cpu time spent up to now is     6806.8 secs

     total energy              =    -525.39739330 Ry
     estimated scf accuracy    <       0.00000009 Ry

     iteration #  6     ecut=    90.00 Ry     beta= 0.30
     Davidson diagonalization with overlap
     ethr =  1.33E-10,  avg # of iterations =  3.0

     negative rho (up, down):  3.681E-03 0.000E+00

     total cpu time spent up to now is     6851.3 secs

     total energy              =    -525.39739332 Ry
     estimated scf accuracy    <          1.6E-09 Ry

     iteration #  7     ecut=    90.00 Ry     beta= 0.30
     Davidson diagonalization with overlap
     ethr =  2.46E-12,  avg # of iterations =  8.0

     negative rho (up, down):  3.681E-03 0.000E+00

     total cpu time spent up to now is     6906.0 secs

     total energy              =    -525.39739332 Ry
     estimated scf accuracy    <       0.00000001 Ry

     iteration #  8     ecut=    90.00 Ry     beta= 0.30
     Davidson diagonalization with overlap
     ethr =  2.46E-12,  avg # of iterations =  7.0

     negative rho (up, down):  3.681E-03 0.000E+00

     total cpu time spent up to now is     6953.6 secs

     total energy              =    -525.39739332 Ry
     estimated scf accuracy    <          5.1E-09 Ry

     iteration #  9     ecut=    90.00 Ry     beta= 0.30
     Davidson diagonalization with overlap
     ethr =  2.46E-12,  avg # of iterations =  3.0

     negative rho (up, down):  3.681E-03 0.000E+00

     total cpu time spent up to now is     6994.6 secs

     total energy              =    -525.39739332 Ry
     estimated scf accuracy    <          2.6E-09 Ry

     iteration # 10     ecut=    90.00 Ry     beta= 0.30
     Davidson diagonalization with overlap
     ethr =  2.46E-12,  avg # of iterations =  6.0

     negative rho (up, down):  3.681E-03 0.000E+00

     total cpu time spent up to now is     7038.5 secs

     total energy              =    -525.39739332 Ry
     estimated scf accuracy    <          1.8E-09 Ry

     iteration # 11     ecut=    90.00 Ry     beta= 0.30
     Davidson diagonalization with overlap
     ethr =  2.46E-12,  avg # of iterations =  1.0

     negative rho (up, down):  3.681E-03 0.000E+00

     total cpu time spent up to now is     7083.6 secs

     total energy              =    -525.39739332 Ry
     estimated scf accuracy    <          1.9E-09 Ry

     iteration # 12     ecut=    90.00 Ry     beta= 0.30
     Davidson diagonalization with overlap
     ethr =  2.46E-12,  avg # of iterations =  2.0

     negative rho (up, down):  3.681E-03 0.000E+00

     total cpu time spent up to now is     7133.1 secs

     total energy              =    -525.39739332 Ry
     estimated scf accuracy    <          6.5E-10 Ry

     iteration # 13     ecut=    90.00 Ry     beta= 0.30
     Davidson diagonalization with overlap
     ethr =  9.82E-13,  avg # of iterations =  4.0

     negative rho (up, down):  3.681E-03 0.000E+00

     total cpu time spent up to now is     7188.2 secs

     End of self-consistent calculation

          k = 0.0000 0.0000 0.0000 (212139 PWs)   bands (ev):

   -90.1316 -56.9349 -55.9284 -55.9284 -22.1474 -21.6704 -17.5117 -17.5117
   -17.4906 -17.4906 -13.3566 -13.3561 -13.1377 -13.1203 -13.1197 -12.7802
   -10.1455  -9.9486  -9.9483  -9.6335  -9.6332  -9.1679  -9.1671  -9.0275
    -9.0267  -8.7393  -6.6478  -6.6477  -6.2021  -6.2020  -4.4533  -4.3346
    -4.3345

     highest occupied level (ev):    -4.3345

!    total energy              =    -525.39739332 Ry
     estimated scf accuracy    <          2.2E-11 Ry

     The total energy is the sum of the following terms:
     one-electron contribution =   -2336.47114104 Ry
     hartree contribution      =    1172.36335955 Ry
     xc contribution           =     -88.23842225 Ry
     ewald contribution        =     864.79030826 Ry
     DFT-D3 Dispersion         =      -0.02566207 Ry
     one-center paw contrib.   =    -137.81583577 Ry

     convergence has been achieved in  13 iterations

     negative rho (up, down):  3.681E-03 0.000E+00

     Forces acting on atoms (cartesian axes, Ry/au):

     atom    1 type  2   force =    -0.00004744    0.00000000    0.00000000
     atom    2 type  1   force =     0.00023170    0.00000000    0.00045431
     atom    3 type  1   force =    -0.00013280   -0.00002624    0.00044521
     atom    4 type  1   force =     0.00010401   -0.00005715    0.00044757
     atom    5 type  1   force =     0.00010401    0.00005715    0.00044757
     atom    6 type  1   force =    -0.00013280    0.00002624    0.00044521
     atom    7 type  3   force =    -0.00004849    0.00000000   -0.00037434
     atom    8 type  3   force =     0.00003623    0.00007359   -0.00037645
     atom    9 type  3   force =    -0.00008719    0.00006636   -0.00037954
     atom   10 type  3   force =    -0.00008719   -0.00006636   -0.00037954
     atom   11 type  3   force =     0.00003623   -0.00007359   -0.00037645
     atom   12 type  1   force =     0.00023170    0.00000000   -0.00045431
     atom   13 type  1   force =    -0.00013280   -0.00002624   -0.00044521
     atom   14 type  1   force =     0.00010401   -0.00005715   -0.00044757
     atom   15 type  1   force =     0.00010401    0.00005715   -0.00044757
     atom   16 type  1   force =    -0.00013280    0.00002624   -0.00044521
     atom   17 type  3   force =    -0.00004849    0.00000000    0.00037434
     atom   18 type  3   force =     0.00003623    0.00007359    0.00037645
     atom   19 type  3   force =    -0.00008719    0.00006636    0.00037954
     atom   20 type  3   force =    -0.00008719   -0.00006636    0.00037954
     atom   21 type  3   force =     0.00003623   -0.00007359    0.00037645

     Total force =     0.001936     Total SCF correction =     0.000009
     Energy error            =      4.1E-06 Ry
     Gradient error          =      4.5E-04 Ry/Bohr

     number of scf cycles    =   8
     number of bfgs steps    =   7

     energy             old  =    -525.3973892747 Ry
     energy             new  =    -525.3973933248 Ry

     CASE: energy            _new < energy            _old

     new trust radius        =       0.0023832392 bohr
     new conv_thr            =            1.0E-10 Ry


ATOMIC_POSITIONS (angstrom)
Fe               8.1691556553        8.1692753900        8.1692753900
C                9.3893310279        8.1692753900        9.8030773243
C                8.5463361072        9.3296802628        9.8031314001
C                7.1821895668        8.8864211095        9.8032134868
C                7.1821895668        7.4521296705        9.8032134868
C                8.5463361072        7.0088705272        9.8031314001
H               10.4756059596        8.1692753900        9.7859693286
H                8.8819718616       10.3626947189        9.7860895891
H                6.3034408868        9.5248868447        9.7862823344
H                6.3034408868        6.8136639453        9.7862823344
H                8.8819718616        5.9758560711        9.7860895891
C                9.3893310279        8.1692753900        6.5354734557
C                8.5463361072        9.3296802628        6.5354193799
C                7.1821895668        8.8864211095        6.5353372932
C                7.1821895668        7.4521296705        6.5353372932
C                8.5463361072        7.0088705272        6.5354193799
H               10.4756059596        8.1692753900        6.5525814514
H                8.8819718616       10.3626947189        6.5524611909
H                6.3034408868        9.5248868447        6.5522684456
H                6.3034408868        6.8136639453        6.5522684456
H                8.8819718616        5.9758560711        6.5524611909



     Writing config-only to output data dir /home/duets/qe_workdirs/ferrocene_pbed3/ferrocene_pbed3.save/ :
     XML data file
     NEW-OLD atomic charge density approx. for the potential

     negative rho (up, down):  3.682E-03 0.000E+00

     total cpu time spent up to now is     7238.8 secs

     Self-consistent Calculation

     iteration #  1     ecut=    90.00 Ry     beta= 0.30
     Davidson diagonalization with overlap
     ethr =  1.00E-06,  avg # of iterations =  2.0

     Threshold (ethr) on eigenvalues was too large:
     Diagonalizing with lowered threshold

     Davidson diagonalization with overlap
     ethr =  4.54E-09,  avg # of iterations =  8.0

     negative rho (up, down):  3.682E-03 0.000E+00

     total cpu time spent up to now is     7315.3 secs

     total energy              =    -525.39739837 Ry
     estimated scf accuracy    <       0.00000332 Ry

     iteration #  2     ecut=    90.00 Ry     beta= 0.30
     Davidson diagonalization with overlap
     ethr =  5.03E-09,  avg # of iterations =  2.0

     negative rho (up, down):  3.682E-03 0.000E+00

     total cpu time spent up to now is     7366.1 secs

     total energy              =    -525.39739834 Ry
     estimated scf accuracy    <       0.00000131 Ry

     iteration #  3     ecut=    90.00 Ry     beta= 0.30
     Davidson diagonalization with overlap
     ethr =  1.98E-09,  avg # of iterations =  2.0

     negative rho (up, down):  3.681E-03 0.000E+00

     total cpu time spent up to now is     7413.0 secs

     total energy              =    -525.39739848 Ry
     estimated scf accuracy    <       0.00000031 Ry

     iteration #  4     ecut=    90.00 Ry     beta= 0.30
     Davidson diagonalization with overlap
     ethr =  4.64E-10,  avg # of iterations =  5.0

     negative rho (up, down):  3.681E-03 0.000E+00

     total cpu time spent up to now is     7462.9 secs

     total energy              =    -525.39739854 Ry
     estimated scf accuracy    <       0.00000008 Ry

     iteration #  5     ecut=    90.00 Ry     beta= 0.30
     Davidson diagonalization with overlap
     ethr =  1.26E-10,  avg # of iterations =  6.0

     negative rho (up, down):  3.681E-03 0.000E+00

     total cpu time spent up to now is     7513.2 secs

     total energy              =    -525.39739852 Ry
     estimated scf accuracy    <       0.00000024 Ry

     iteration #  6     ecut=    90.00 Ry     beta= 0.30
     Davidson diagonalization with overlap
     ethr =  1.26E-10,  avg # of iterations =  7.0

     negative rho (up, down):  3.681E-03 0.000E+00

     total cpu time spent up to now is     7558.2 secs

     total energy              =    -525.39739862 Ry
     estimated scf accuracy    <       0.00000057 Ry

     iteration #  7     ecut=    90.00 Ry     beta= 0.30
     Davidson diagonalization with overlap
     ethr =  1.26E-10,  avg # of iterations =  2.0

     negative rho (up, down):  3.681E-03 0.000E+00

     total cpu time spent up to now is     7600.9 secs

     total energy              =    -525.39739861 Ry
     estimated scf accuracy    <       0.00000045 Ry

     iteration #  8     ecut=    90.00 Ry     beta= 0.30
     Davidson diagonalization with overlap
     ethr =  1.26E-10,  avg # of iterations =  1.0

     negative rho (up, down):  3.681E-03 0.000E+00

     total cpu time spent up to now is     7642.1 secs

     total energy              =    -525.39739853 Ry
     estimated scf accuracy    <       0.00000042 Ry

     iteration #  9     ecut=    90.00 Ry     beta= 0.30
     Davidson diagonalization with overlap
     ethr =  1.26E-10,  avg # of iterations =  6.0

     negative rho (up, down):  3.681E-03 0.000E+00

     total cpu time spent up to now is     7689.1 secs

     total energy              =    -525.39739861 Ry
     estimated scf accuracy    <       0.00000004 Ry

     iteration # 10     ecut=    90.00 Ry     beta= 0.30
     Davidson diagonalization with overlap
     ethr =  5.35E-11,  avg # of iterations =  5.0

     negative rho (up, down):  3.681E-03 0.000E+00

     total cpu time spent up to now is     7736.1 secs

     total energy              =    -525.39739859 Ry
     estimated scf accuracy    <       0.00000037 Ry

     iteration # 11     ecut=    90.00 Ry     beta= 0.30
     Davidson diagonalization with overlap
     ethr =  5.35E-11,  avg # of iterations =  5.0

     negative rho (up, down):  3.681E-03 0.000E+00

     total cpu time spent up to now is     7778.7 secs

     total energy              =    -525.39739859 Ry
     estimated scf accuracy    <       0.00000012 Ry

     iteration # 12     ecut=    90.00 Ry     beta= 0.30
     Davidson diagonalization with overlap
     ethr =  5.35E-11,  avg # of iterations =  4.0

     negative rho (up, down):  3.681E-03 0.000E+00

     total cpu time spent up to now is     7828.7 secs

     total energy              =    -525.39739858 Ry
     estimated scf accuracy    <       0.00000006 Ry

     iteration # 13     ecut=    90.00 Ry     beta= 0.30
     Davidson diagonalization with overlap
     ethr =  5.35E-11,  avg # of iterations =  5.0

     negative rho (up, down):  3.681E-03 0.000E+00

     total cpu time spent up to now is     7875.0 secs

     total energy              =    -525.39739859 Ry
     estimated scf accuracy    <          1.0E-09 Ry

     iteration # 14     ecut=    90.00 Ry     beta= 0.30
     Davidson diagonalization with overlap
     ethr =  1.52E-12,  avg # of iterations =  5.0

     negative rho (up, down):  3.681E-03 0.000E+00

     total cpu time spent up to now is     7919.8 secs

     total energy              =    -525.39739859 Ry
     estimated scf accuracy    <          2.9E-10 Ry

     iteration # 15     ecut=    90.00 Ry     beta= 0.30
     Davidson diagonalization with overlap
     ethr =  4.41E-13,  avg # of iterations =  4.0

     negative rho (up, down):  3.681E-03 0.000E+00

     total cpu time spent up to now is     7966.6 secs

     total energy              =    -525.39739859 Ry
     estimated scf accuracy    <          1.3E-10 Ry

     iteration # 16     ecut=    90.00 Ry     beta= 0.30
     Davidson diagonalization with overlap
     ethr =  1.91E-13,  avg # of iterations =  5.0

     negative rho (up, down):  3.681E-03 0.000E+00

     total cpu time spent up to now is     8011.3 secs

     total energy              =    -525.39739859 Ry
     estimated scf accuracy    <          2.1E-10 Ry

     iteration # 17     ecut=    90.00 Ry     beta= 0.30
     Davidson diagonalization with overlap
     ethr =  1.91E-13,  avg # of iterations =  7.0

     negative rho (up, down):  3.681E-03 0.000E+00

     total cpu time spent up to now is     8062.1 secs

     total energy              =    -525.39739859 Ry
     estimated scf accuracy    <          3.1E-09 Ry

     iteration # 18     ecut=    90.00 Ry     beta= 0.30
     Davidson diagonalization with overlap
     ethr =  1.91E-13,  avg # of iterations =  6.0

     negative rho (up, down):  3.681E-03 0.000E+00

     total cpu time spent up to now is     8111.1 secs

     total energy              =    -525.39739859 Ry
     estimated scf accuracy    <          6.4E-09 Ry

     iteration # 19     ecut=    90.00 Ry     beta= 0.30
     Davidson diagonalization with overlap
     ethr =  1.91E-13,  avg # of iterations =  5.0

     negative rho (up, down):  3.681E-03 0.000E+00

     total cpu time spent up to now is     8153.8 secs

     total energy              =    -525.39739859 Ry
     estimated scf accuracy    <          4.1E-09 Ry

     iteration # 20     ecut=    90.00 Ry     beta= 0.30
     Davidson diagonalization with overlap
     ethr =  1.91E-13,  avg # of iterations =  5.0

     negative rho (up, down):  3.681E-03 0.000E+00

     total cpu time spent up to now is     8196.4 secs

     total energy              =    -525.39739859 Ry
     estimated scf accuracy    <          2.9E-09 Ry

     iteration # 21     ecut=    90.00 Ry     beta= 0.30
     Davidson diagonalization with overlap
     ethr =  1.91E-13,  avg # of iterations =  7.0

     negative rho (up, down):  3.681E-03 0.000E+00

     total cpu time spent up to now is     8244.9 secs

     total energy              =    -525.39739859 Ry
     estimated scf accuracy    <          1.0E-10 Ry

     iteration # 22     ecut=    90.00 Ry     beta= 0.30
     Davidson diagonalization with overlap
     ethr =  1.53E-13,  avg # of iterations =  2.0

     negative rho (up, down):  3.681E-03 0.000E+00

     total cpu time spent up to now is     8286.5 secs

     End of self-consistent calculation

          k = 0.0000 0.0000 0.0000 (212139 PWs)   bands (ev):

   -90.1320 -56.9352 -55.9290 -55.9290 -22.1476 -21.6700 -17.5122 -17.5121
   -17.4911 -17.4911 -13.3571 -13.3569 -13.1380 -13.1202 -13.1200 -12.7798
   -10.1456  -9.9486  -9.9483  -9.6338  -9.6335  -9.1681  -9.1678  -9.0274
    -9.0271  -8.7387  -6.6493  -6.6490  -6.2029  -6.2027  -4.4534  -4.3356
    -4.3356

     highest occupied level (ev):    -4.3356

!    total energy              =    -525.39739859 Ry
     estimated scf accuracy    <          5.2E-11 Ry

     The total energy is the sum of the following terms:
     one-electron contribution =   -2336.62726298 Ry
     hartree contribution      =    1172.44026329 Ry
     xc contribution           =     -88.23816639 Ry
     ewald contribution        =     864.86926783 Ry
     DFT-D3 Dispersion         =      -0.02567120 Ry
     one-center paw contrib.   =    -137.81582914 Ry

     convergence has been achieved in  22 iterations

     negative rho (up, down):  3.681E-03 0.000E+00

     Forces acting on atoms (cartesian axes, Ry/au):

     atom    1 type  2   force =    -0.00000034    0.00000000    0.00000000
     atom    2 type  1   force =     0.00014283    0.00000000    0.00043142
     atom    3 type  1   force =    -0.00011249   -0.00010057    0.00042474
     atom    4 type  1   force =     0.00006722    0.00002941    0.00043303
     atom    5 type  1   force =     0.00006722   -0.00002941    0.00043303
     atom    6 type  1   force =    -0.00011249    0.00010057    0.00042474
     atom    7 type  3   force =    -0.00007172    0.00000000   -0.00030033
     atom    8 type  3   force =     0.00002400    0.00005020   -0.00030140
     atom    9 type  3   force =    -0.00001421    0.00000909   -0.00030188
     atom   10 type  3   force =    -0.00001421   -0.00000909   -0.00030188
     atom   11 type  3   force =     0.00002400   -0.00005020   -0.00030140
     atom   12 type  1   force =     0.00014283    0.00000000   -0.00043142
     atom   13 type  1   force =    -0.00011249   -0.00010057   -0.00042474
     atom   14 type  1   force =     0.00006722    0.00002941   -0.00043303
     atom   15 type  1   force =     0.00006722   -0.00002941   -0.00043303
     atom   16 type  1   force =    -0.00011249    0.00010057   -0.00042474
     atom   17 type  3   force =    -0.00007172    0.00000000    0.00030033
     atom   18 type  3   force =     0.00002400    0.00005020    0.00030140
     atom   19 type  3   force =    -0.00001421    0.00000909    0.00030188
     atom   20 type  3   force =    -0.00001421   -0.00000909    0.00030188
     atom   21 type  3   force =     0.00002400   -0.00005020    0.00030140

     Total force =     0.001712     Total SCF correction =     0.000014
     Energy error            =      5.3E-06 Ry
     Gradient error          =      4.3E-04 Ry/Bohr

     number of scf cycles    =   9
     number of bfgs steps    =   8

     energy             old  =    -525.3973933248 Ry
     energy             new  =    -525.3973985898 Ry

     CASE: energy            _new < energy            _old

     new trust radius        =       0.0035748589 bohr
     new conv_thr            =            1.0E-10 Ry


ATOMIC_POSITIONS (angstrom)
Fe               8.1691542644        8.1692753900        8.1692753900
C                9.3893845363        8.1692753900        9.8030055882
C                8.5463565106        9.3297005602        9.8030615799
C                7.1821175806        8.8865129014        9.8031538385
C                7.1821175806        7.4520378786        9.8031538385
C                8.5463565106        7.0088502298        9.8030615799
H               10.4757095675        8.1692753900        9.7840804341
H                8.8820021872       10.3627906827        9.7842045185
H                6.3033839336        9.5249230090        9.7844017272
H                6.3033839336        6.8136277810        9.7844017272
H                8.8820021872        5.9757601073        9.7842045185
C                9.3893845363        8.1692753900        6.5355451918
C                8.5463565106        9.3297005602        6.5354892001
C                7.1821175806        8.8865129014        6.5353969415
C                7.1821175806        7.4520378786        6.5353969415
C                8.5463565106        7.0088502298        6.5354892001
H               10.4757095675        8.1692753900        6.5544703459
H                8.8820021872       10.3627906827        6.5543462615
H                6.3033839336        9.5249230090        6.5541490528
H                6.3033839336        6.8136277810        6.5541490528
H                8.8820021872        5.9757601073        6.5543462615



     Writing config-only to output data dir /home/duets/qe_workdirs/ferrocene_pbed3/ferrocene_pbed3.save/ :
     XML data file
     NEW-OLD atomic charge density approx. for the potential

     negative rho (up, down):  3.682E-03 0.000E+00

     total cpu time spent up to now is     8333.1 secs

     Self-consistent Calculation

     iteration #  1     ecut=    90.00 Ry     beta= 0.30
     Davidson diagonalization with overlap
     ethr =  1.00E-06,  avg # of iterations =  2.0

     Threshold (ethr) on eigenvalues was too large:
     Diagonalizing with lowered threshold

     Davidson diagonalization with overlap
     ethr =  3.84E-09,  avg # of iterations =  7.0

     negative rho (up, down):  3.682E-03 0.000E+00

     total cpu time spent up to now is     8423.1 secs

     total energy              =    -525.39740552 Ry
     estimated scf accuracy    <       0.00000504 Ry

     iteration #  2     ecut=    90.00 Ry     beta= 0.30
     Davidson diagonalization with overlap
     ethr =  7.64E-09,  avg # of iterations =  4.0

     negative rho (up, down):  3.682E-03 0.000E+00

     total cpu time spent up to now is     8471.6 secs

     total energy              =    -525.39740537 Ry
     estimated scf accuracy    <       0.00000413 Ry

     iteration #  3     ecut=    90.00 Ry     beta= 0.30
     Davidson diagonalization with overlap
     ethr =  6.26E-09,  avg # of iterations =  5.0

     negative rho (up, down):  3.681E-03 0.000E+00

     total cpu time spent up to now is     8517.5 secs

     total energy              =    -525.39740572 Ry
     estimated scf accuracy    <       0.00000213 Ry

     iteration #  4     ecut=    90.00 Ry     beta= 0.30
     Davidson diagonalization with overlap
     ethr =  3.23E-09,  avg # of iterations =  2.0

     negative rho (up, down):  3.681E-03 0.000E+00

     total cpu time spent up to now is     8565.7 secs

     total energy              =    -525.39740583 Ry
     estimated scf accuracy    <       0.00000029 Ry

     iteration #  5     ecut=    90.00 Ry     beta= 0.30
     Davidson diagonalization with overlap
     ethr =  4.33E-10,  avg # of iterations =  7.0

     negative rho (up, down):  3.681E-03 0.000E+00

     total cpu time spent up to now is     8608.4 secs

     total energy              =    -525.39740583 Ry
     estimated scf accuracy    <       0.00000065 Ry

     iteration #  6     ecut=    90.00 Ry     beta= 0.30
     Davidson diagonalization with overlap
     ethr =  4.33E-10,  avg # of iterations =  6.0

     negative rho (up, down):  3.681E-03 0.000E+00

     total cpu time spent up to now is     8657.2 secs

     total energy              =    -525.39740593 Ry
     estimated scf accuracy    <       0.00000022 Ry

     iteration #  7     ecut=    90.00 Ry     beta= 0.30
     Davidson diagonalization with overlap
     ethr =  3.29E-10,  avg # of iterations =  4.0

     negative rho (up, down):  3.681E-03 0.000E+00

     total cpu time spent up to now is     8703.9 secs

     total energy              =    -525.39740595 Ry
     estimated scf accuracy    <          5.4E-09 Ry

     iteration #  8     ecut=    90.00 Ry     beta= 0.30
     Davidson diagonalization with overlap
     ethr =  8.13E-12,  avg # of iterations =  9.0

     negative rho (up, down):  3.681E-03 0.000E+00

     total cpu time spent up to now is     8753.7 secs

     total energy              =    -525.39740595 Ry
     estimated scf accuracy    <       0.00000006 Ry

     iteration #  9     ecut=    90.00 Ry     beta= 0.30
     Davidson diagonalization with overlap
     ethr =  8.13E-12,  avg # of iterations =  7.0

     negative rho (up, down):  3.681E-03 0.000E+00

     total cpu time spent up to now is     8801.2 secs

     total energy              =    -525.39740596 Ry
     estimated scf accuracy    <          3.1E-09 Ry

     iteration # 10     ecut=    90.00 Ry     beta= 0.30
     Davidson diagonalization with overlap
     ethr =  4.67E-12,  avg # of iterations =  1.0

     negative rho (up, down):  3.681E-03 0.000E+00

     total cpu time spent up to now is     8853.0 secs

     total energy              =    -525.39740596 Ry
     estimated scf accuracy    <          2.6E-09 Ry

     iteration # 11     ecut=    90.00 Ry     beta= 0.30
     Davidson diagonalization with overlap
     ethr =  3.88E-12,  avg # of iterations =  5.0

     negative rho (up, down):  3.681E-03 0.000E+00

     total cpu time spent up to now is     8903.0 secs

     total energy              =    -525.39740596 Ry
     estimated scf accuracy    <          1.4E-09 Ry

     iteration # 12     ecut=    90.00 Ry     beta= 0.30
     Davidson diagonalization with overlap
     ethr =  2.06E-12,  avg # of iterations =  2.0

     negative rho (up, down):  3.681E-03 0.000E+00

     total cpu time spent up to now is     8960.5 secs

     total energy              =    -525.39740596 Ry
     estimated scf accuracy    <          8.2E-10 Ry

     iteration # 13     ecut=    90.00 Ry     beta= 0.30
     Davidson diagonalization with overlap
     ethr =  1.25E-12,  avg # of iterations =  1.0

     negative rho (up, down):  3.681E-03 0.000E+00

     total cpu time spent up to now is     9012.0 secs

     total energy              =    -525.39740596 Ry
     estimated scf accuracy    <          1.0E-09 Ry

     iteration # 14     ecut=    90.00 Ry     beta= 0.30
     Davidson diagonalization with overlap
     ethr =  1.25E-12,  avg # of iterations =  5.0

     negative rho (up, down):  3.681E-03 0.000E+00

     total cpu time spent up to now is     9058.2 secs

     End of self-consistent calculation

          k = 0.0000 0.0000 0.0000 (212139 PWs)   bands (ev):

   -90.1317 -56.9349 -55.9289 -55.9289 -22.1477 -21.6700 -17.5127 -17.5127
   -17.4919 -17.4919 -13.3584 -13.3577 -13.1383 -13.1209 -13.1201 -12.7794
   -10.1460  -9.9472  -9.9472  -9.6341  -9.6340  -9.1692  -9.1680  -9.0283
    -9.0270  -8.7392  -6.6519  -6.6519  -6.2037  -6.2037  -4.4529  -4.3356
    -4.3354

     highest occupied level (ev):    -4.3354

!    total energy              =    -525.39740596 Ry
     estimated scf accuracy    <          2.3E-11 Ry

     The total energy is the sum of the following terms:
     one-electron contribution =   -2336.69708816 Ry
     hartree contribution      =    1172.47384065 Ry
     xc contribution           =     -88.23720087 Ry
     ewald contribution        =     864.90453311 Ry
     DFT-D3 Dispersion         =      -0.02568192 Ry
     one-center paw contrib.   =    -137.81580876 Ry

     convergence has been achieved in  14 iterations

     negative rho (up, down):  3.681E-03 0.000E+00

     Forces acting on atoms (cartesian axes, Ry/au):

     atom    1 type  2   force =    -0.00004079    0.00000000    0.00000000
     atom    2 type  1   force =     0.00018583    0.00000000    0.00027326
     atom    3 type  1   force =    -0.00012683    0.00002671    0.00027087
     atom    4 type  1   force =     0.00016633   -0.00020009    0.00026673
     atom    5 type  1   force =     0.00016633    0.00020009    0.00026673
     atom    6 type  1   force =    -0.00012683   -0.00002671    0.00027087
     atom    7 type  3   force =    -0.00017978    0.00000000   -0.00014279
     atom    8 type  3   force =    -0.00001169   -0.00008131   -0.00014509
     atom    9 type  3   force =    -0.00002064    0.00002650   -0.00014767
     atom   10 type  3   force =    -0.00002064   -0.00002650   -0.00014767
     atom   11 type  3   force =    -0.00001169    0.00008131   -0.00014509
     atom   12 type  1   force =     0.00018583    0.00000000   -0.00027326
     atom   13 type  1   force =    -0.00012683    0.00002671   -0.00027087
     atom   14 type  1   force =     0.00016633   -0.00020009   -0.00026673
     atom   15 type  1   force =     0.00016633    0.00020009   -0.00026673
     atom   16 type  1   force =    -0.00012683   -0.00002671   -0.00027087
     atom   17 type  3   force =    -0.00017978    0.00000000    0.00014279
     atom   18 type  3   force =    -0.00001169   -0.00008131    0.00014509
     atom   19 type  3   force =    -0.00002064    0.00002650    0.00014767
     atom   20 type  3   force =    -0.00002064   -0.00002650    0.00014767
     atom   21 type  3   force =    -0.00001169    0.00008131    0.00014509

     Total force =     0.001202     Total SCF correction =     0.000012
     Energy error            =      7.4E-06 Ry
     Gradient error          =      2.7E-04 Ry/Bohr

     number of scf cycles    =  10
     number of bfgs steps    =   9

     energy             old  =    -525.3973985898 Ry
     energy             new  =    -525.3974059575 Ry

     CASE: energy            _new < energy            _old

     new trust radius        =       0.0024636516 bohr
     new conv_thr            =            1.0E-10 Ry


ATOMIC_POSITIONS (angstrom)
Fe               8.1691179888        8.1692753900        8.1692753900
C                9.3894559793        8.1692753900        9.8033582263
C                8.5463457012        9.3297935590        9.8034198608
C                7.1821578574        8.8863993763        9.8035136561
C                7.1821578574        7.4521514037        9.8035136561
C                8.5463457012        7.0087572310        9.8034198608
H               10.4756902432        8.1692753900        9.7827772104
H                8.8819971717       10.3627513344        9.7829018805
H                6.3033424914        9.5249623185        9.7830992709
H                6.3033424914        6.8135884715        9.7830992709
H                8.8819971717        5.9757994556        9.7829018805
C                9.3894559793        8.1692753900        6.5351925537
C                8.5463457012        9.3297935590        6.5351309192
C                7.1821578574        8.8863993763        6.5350371239
C                7.1821578574        7.4521514037        6.5350371239
C                8.5463457012        7.0087572310        6.5351309192
H               10.4756902432        8.1692753900        6.5557735696
H                8.8819971717       10.3627513344        6.5556488995
H                6.3033424914        9.5249623185        6.5554515091
H                6.3033424914        6.8135884715        6.5554515091
H                8.8819971717        5.9757994556        6.5556488995



     Writing config-only to output data dir /home/duets/qe_workdirs/ferrocene_pbed3/ferrocene_pbed3.save/ :
     XML data file
     NEW-OLD atomic charge density approx. for the potential

     negative rho (up, down):  3.681E-03 0.000E+00

     total cpu time spent up to now is     9111.9 secs

     Self-consistent Calculation

     iteration #  1     ecut=    90.00 Ry     beta= 0.30
     Davidson diagonalization with overlap
     ethr =  1.00E-06,  avg # of iterations =  2.0

     Threshold (ethr) on eigenvalues was too large:
     Diagonalizing with lowered threshold

     Davidson diagonalization with overlap
     ethr =  2.16E-09,  avg # of iterations =  9.0

     negative rho (up, down):  3.681E-03 0.000E+00

     total cpu time spent up to now is     9200.9 secs

     total energy              =    -525.39740854 Ry
     estimated scf accuracy    <       0.00000152 Ry

     iteration #  2     ecut=    90.00 Ry     beta= 0.30
     Davidson diagonalization with overlap
     ethr =  2.31E-09,  avg # of iterations =  1.0

     negative rho (up, down):  3.681E-03 0.000E+00

     total cpu time spent up to now is     9243.8 secs

     total energy              =    -525.39740858 Ry
     estimated scf accuracy    <       0.00000069 Ry

     iteration #  3     ecut=    90.00 Ry     beta= 0.30
     Davidson diagonalization with overlap
     ethr =  1.05E-09,  avg # of iterations =  2.0

     negative rho (up, down):  3.681E-03 0.000E+00

     total cpu time spent up to now is     9291.4 secs

     total energy              =    -525.39740866 Ry
     estimated scf accuracy    <       0.00000005 Ry

     iteration #  4     ecut=    90.00 Ry     beta= 0.30
     Davidson diagonalization with overlap
     ethr =  8.22E-11,  avg # of iterations =  6.0

     negative rho (up, down):  3.681E-03 0.000E+00

     total cpu time spent up to now is     9343.6 secs

     total energy              =    -525.39740874 Ry
     estimated scf accuracy    <       0.00000003 Ry

     iteration #  5     ecut=    90.00 Ry     beta= 0.30
     Davidson diagonalization with overlap
     ethr =  4.96E-11,  avg # of iterations =  5.0

     negative rho (up, down):  3.681E-03 0.000E+00

     total cpu time spent up to now is     9388.0 secs

     total energy              =    -525.39740869 Ry
     estimated scf accuracy    <       0.00000013 Ry

     iteration #  6     ecut=    90.00 Ry     beta= 0.30
     Davidson diagonalization with overlap
     ethr =  4.96E-11,  avg # of iterations =  3.0

     negative rho (up, down):  3.681E-03 0.000E+00

     total cpu time spent up to now is     9432.2 secs

     total energy              =    -525.39740870 Ry
     estimated scf accuracy    <       0.00000003 Ry

     iteration #  7     ecut=    90.00 Ry     beta= 0.30
     Davidson diagonalization with overlap
     ethr =  4.24E-11,  avg # of iterations =  4.0

     negative rho (up, down):  3.681E-03 0.000E+00

     total cpu time spent up to now is     9478.4 secs

     total energy              =    -525.39740870 Ry
     estimated scf accuracy    <          3.2E-09 Ry

     iteration #  8     ecut=    90.00 Ry     beta= 0.30
     Davidson diagonalization with overlap
     ethr =  4.84E-12,  avg # of iterations =  5.0

     negative rho (up, down):  3.681E-03 0.000E+00

     total cpu time spent up to now is     9523.5 secs

     total energy              =    -525.39740871 Ry
     estimated scf accuracy    <          2.4E-09 Ry

     iteration #  9     ecut=    90.00 Ry     beta= 0.30
     Davidson diagonalization with overlap
     ethr =  3.66E-12,  avg # of iterations =  2.0

     negative rho (up, down):  3.681E-03 0.000E+00

     total cpu time spent up to now is     9564.1 secs

     total energy              =    -525.39740871 Ry
     estimated scf accuracy    <          2.4E-09 Ry

     iteration # 10     ecut=    90.00 Ry     beta= 0.30
     Davidson diagonalization with overlap
     ethr =  3.66E-12,  avg # of iterations =  6.0

     negative rho (up, down):  3.681E-03 0.000E+00

     total cpu time spent up to now is     9607.7 secs

     total energy              =    -525.39740871 Ry
     estimated scf accuracy    <          5.9E-09 Ry

     iteration # 11     ecut=    90.00 Ry     beta= 0.30
     Davidson diagonalization with overlap
     ethr =  3.66E-12,  avg # of iterations =  5.0

     negative rho (up, down):  3.681E-03 0.000E+00

     total cpu time spent up to now is     9654.7 secs

     total energy              =    -525.39740871 Ry
     estimated scf accuracy    <          1.1E-09 Ry

     iteration # 12     ecut=    90.00 Ry     beta= 0.30
     Davidson diagonalization with overlap
     ethr =  1.67E-12,  avg # of iterations =  4.0

     negative rho (up, down):  3.681E-03 0.000E+00

     total cpu time spent up to now is     9697.8 secs

     total energy              =    -525.39740871 Ry
     estimated scf accuracy    <          3.1E-10 Ry

     iteration # 13     ecut=    90.00 Ry     beta= 0.30
     Davidson diagonalization with overlap
     ethr =  4.62E-13,  avg # of iterations =  5.0

     negative rho (up, down):  3.681E-03 0.000E+00

     total cpu time spent up to now is     9743.6 secs

     total energy              =    -525.39740871 Ry
     estimated scf accuracy    <          1.2E-09 Ry

     iteration # 14     ecut=    90.00 Ry     beta= 0.30
     Davidson diagonalization with overlap
     ethr =  4.62E-13,  avg # of iterations =  1.0

     negative rho (up, down):  3.681E-03 0.000E+00

     total cpu time spent up to now is     9783.8 secs

     total energy              =    -525.39740871 Ry
     estimated scf accuracy    <          1.1E-09 Ry

     iteration # 15     ecut=    90.00 Ry     beta= 0.30
     Davidson diagonalization with overlap
     ethr =  4.62E-13,  avg # of iterations =  2.0

     negative rho (up, down):  3.681E-03 0.000E+00

     total cpu time spent up to now is     9835.5 secs

     total energy              =    -525.39740871 Ry
     estimated scf accuracy    <          7.4E-10 Ry

     iteration # 16     ecut=    90.00 Ry     beta= 0.30
     Davidson diagonalization with overlap
     ethr =  4.62E-13,  avg # of iterations =  6.0

     negative rho (up, down):  3.681E-03 0.000E+00

     total cpu time spent up to now is     9880.4 secs

     total energy              =    -525.39740871 Ry
     estimated scf accuracy    <          1.5E-10 Ry

     iteration # 17     ecut=    90.00 Ry     beta= 0.30
     Davidson diagonalization with overlap
     ethr =  2.34E-13,  avg # of iterations =  4.0

     negative rho (up, down):  3.681E-03 0.000E+00

     total cpu time spent up to now is     9921.7 secs

     End of self-consistent calculation

          k = 0.0000 0.0000 0.0000 (212139 PWs)   bands (ev):

   -90.1308 -56.9341 -55.9277 -55.9277 -22.1479 -21.6707 -17.5133 -17.5131
   -17.4926 -17.4925 -13.3591 -13.3584 -13.1384 -13.1215 -13.1208 -12.7794
   -10.1465  -9.9455  -9.9450  -9.6344  -9.6339  -9.1696  -9.1683  -9.0288
    -9.0275  -8.7411  -6.6547  -6.6543  -6.2044  -6.2040  -4.4520  -4.3339
    -4.3339

     highest occupied level (ev):    -4.3339

!    total energy              =    -525.39740871 Ry
     estimated scf accuracy    <          2.8E-11 Ry

     The total energy is the sum of the following terms:
     one-electron contribution =   -2336.61275118 Ry
     hartree contribution      =    1172.43060787 Ry
     xc contribution           =     -88.23628590 Ry
     ewald contribution        =     864.86250441 Ry
     DFT-D3 Dispersion         =      -0.02568672 Ry
     one-center paw contrib.   =    -137.81579719 Ry

     convergence has been achieved in  17 iterations

     negative rho (up, down):  3.681E-03 0.000E+00

     Forces acting on atoms (cartesian axes, Ry/au):

     atom    1 type  2   force =     0.00009725    0.00000000    0.00000000
     atom    2 type  1   force =    -0.00006321    0.00000000    0.00004037
     atom    3 type  1   force =    -0.00006123   -0.00030242    0.00003514
     atom    4 type  1   force =    -0.00004627    0.00028479    0.00005287
     atom    5 type  1   force =    -0.00004627   -0.00028479    0.00005287
     atom    6 type  1   force =    -0.00006123    0.00030242    0.00003514
     atom    7 type  3   force =    -0.00010145    0.00000000   -0.00000501
     atom    8 type  3   force =     0.00000561    0.00003565   -0.00000331
     atom    9 type  3   force =     0.00015991   -0.00013168    0.00000415
     atom   10 type  3   force =     0.00015991    0.00013168    0.00000415
     atom   11 type  3   force =     0.00000561   -0.00003565   -0.00000331
     atom   12 type  1   force =    -0.00006321    0.00000000   -0.00004037
     atom   13 type  1   force =    -0.00006123   -0.00030242   -0.00003514
     atom   14 type  1   force =    -0.00004627    0.00028479   -0.00005287
     atom   15 type  1   force =    -0.00004627   -0.00028479   -0.00005287
     atom   16 type  1   force =    -0.00006123    0.00030242   -0.00003514
     atom   17 type  3   force =    -0.00010145    0.00000000    0.00000501
     atom   18 type  3   force =     0.00000561    0.00003565    0.00000331
     atom   19 type  3   force =     0.00015991   -0.00013168   -0.00000415
     atom   20 type  3   force =     0.00015991    0.00013168   -0.00000415
     atom   21 type  3   force =     0.00000561   -0.00003565    0.00000331

     Total force =     0.000974     Total SCF correction =     0.000008
     Energy error            =      2.7E-06 Ry
     Gradient error          =      3.0E-04 Ry/Bohr

     number of scf cycles    =  11
     number of bfgs steps    =  10

     energy             old  =    -525.3974059575 Ry
     energy             new  =    -525.3974087070 Ry

     CASE: energy            _new < energy            _old

     new trust radius        =       0.0004506431 bohr
     new conv_thr            =            1.0E-10 Ry


ATOMIC_POSITIONS (angstrom)
Fe               8.1691616798        8.1692753900        8.1692753900
C                9.3894183362        8.1692753900        9.8035563458
C                8.5463183317        9.3296619094        9.8036168056
C                7.1821462871        8.8865074529        9.8037184009
C                7.1821462871        7.4520433271        9.8037184009
C                8.5463183317        7.0088888806        9.8036168056
H               10.4756315705        8.1692753900        9.7828463574
H                8.8819943681       10.3627478373        9.7829711716
H                6.3034214698        9.5249002402        9.7831712354
H                6.3034214698        6.8136505498        9.7831712354
H                8.8819943681        5.9758029527        9.7829711716
C                9.3894183362        8.1692753900        6.5349944342
C                8.5463183317        9.3296619094        6.5349339744
C                7.1821462871        8.8865074529        6.5348323791
C                7.1821462871        7.4520433271        6.5348323791
C                8.5463183317        7.0088888806        6.5349339744
H               10.4756315705        8.1692753900        6.5557044226
H                8.8819943681       10.3627478373        6.5555796084
H                6.3034214698        9.5249002402        6.5553795446
H                6.3034214698        6.8136505498        6.5553795446
H                8.8819943681        5.9758029527        6.5555796084



     Writing config-only to output data dir /home/duets/qe_workdirs/ferrocene_pbed3/ferrocene_pbed3.save/ :
     XML data file
     NEW-OLD atomic charge density approx. for the potential

     negative rho (up, down):  3.680E-03 0.000E+00

     total cpu time spent up to now is     9971.9 secs

     Self-consistent Calculation

     iteration #  1     ecut=    90.00 Ry     beta= 0.30
     Davidson diagonalization with overlap
     ethr =  1.00E-06,  avg # of iterations =  2.0

     Threshold (ethr) on eigenvalues was too large:
     Diagonalizing with lowered threshold

     Davidson diagonalization with overlap
     ethr =  6.95E-10,  avg # of iterations =  8.0

     negative rho (up, down):  3.680E-03 0.000E+00

     total cpu time spent up to now is    10057.7 secs

     total energy              =    -525.39740899 Ry
     estimated scf accuracy    <       0.00000027 Ry

     iteration #  2     ecut=    90.00 Ry     beta= 0.30
     Davidson diagonalization with overlap
     ethr =  4.02E-10,  avg # of iterations =  2.0

     negative rho (up, down):  3.680E-03 0.000E+00

     total cpu time spent up to now is    10099.6 secs

     total energy              =    -525.39740898 Ry
     estimated scf accuracy    <       0.00000010 Ry

     iteration #  3     ecut=    90.00 Ry     beta= 0.30
     Davidson diagonalization with overlap
     ethr =  1.57E-10,  avg # of iterations =  3.0

     negative rho (up, down):  3.680E-03 0.000E+00

     total cpu time spent up to now is    10154.3 secs

     total energy              =    -525.39740901 Ry
     estimated scf accuracy    <       0.00000001 Ry

     iteration #  4     ecut=    90.00 Ry     beta= 0.30
     Davidson diagonalization with overlap
     ethr =  1.63E-11,  avg # of iterations =  7.0

     negative rho (up, down):  3.680E-03 0.000E+00

     total cpu time spent up to now is    10203.5 secs

     total energy              =    -525.39740901 Ry
     estimated scf accuracy    <       0.00000001 Ry

     iteration #  5     ecut=    90.00 Ry     beta= 0.30
     Davidson diagonalization with overlap
     ethr =  1.55E-11,  avg # of iterations =  6.0

     negative rho (up, down):  3.680E-03 0.000E+00

     total cpu time spent up to now is    10256.4 secs

     total energy              =    -525.39740900 Ry
     estimated scf accuracy    <       0.00000007 Ry

     iteration #  6     ecut=    90.00 Ry     beta= 0.30
     Davidson diagonalization with overlap
     ethr =  1.55E-11,  avg # of iterations =  7.0

     negative rho (up, down):  3.680E-03 0.000E+00

     total cpu time spent up to now is    10305.6 secs

     total energy              =    -525.39740901 Ry
     estimated scf accuracy    <       0.00000003 Ry

     iteration #  7     ecut=    90.00 Ry     beta= 0.30
     Davidson diagonalization with overlap
     ethr =  1.55E-11,  avg # of iterations =  5.0

     negative rho (up, down):  3.680E-03 0.000E+00

     total cpu time spent up to now is    10350.7 secs

     total energy              =    -525.39740901 Ry
     estimated scf accuracy    <          1.2E-09 Ry

     iteration #  8     ecut=    90.00 Ry     beta= 0.30
     Davidson diagonalization with overlap
     ethr =  1.75E-12,  avg # of iterations =  5.0

     negative rho (up, down):  3.680E-03 0.000E+00

     total cpu time spent up to now is    10402.7 secs

     End of self-consistent calculation

          k = 0.0000 0.0000 0.0000 (212139 PWs)   bands (ev):

   -90.1304 -56.9338 -55.9272 -55.9272 -22.1481 -21.6713 -17.5133 -17.5132
   -17.4927 -17.4926 -13.3590 -13.3585 -13.1384 -13.1216 -13.1210 -12.7797
   -10.1467  -9.9449  -9.9447  -9.6342  -9.6339  -9.1693  -9.1686  -9.0287
    -9.0279  -8.7419  -6.6549  -6.6546  -6.2042  -6.2039  -4.4517  -4.3332
    -4.3331

     highest occupied level (ev):    -4.3331

!    total energy              =    -525.39740901 Ry
     estimated scf accuracy    <          7.1E-11 Ry

     The total energy is the sum of the following terms:
     one-electron contribution =   -2336.55469001 Ry
     hartree contribution      =    1172.40187372 Ry
     xc contribution           =     -88.23646171 Ry
     ewald contribution        =     864.83336032 Ry
     DFT-D3 Dispersion         =      -0.02568507 Ry
     one-center paw contrib.   =    -137.81580626 Ry

     convergence has been achieved in   8 iterations

     negative rho (up, down):  3.680E-03 0.000E+00

     Forces acting on atoms (cartesian axes, Ry/au):

     atom    1 type  2   force =    -0.00006003    0.00000000    0.00000000
     atom    2 type  1   force =     0.00001158    0.00000000   -0.00000789
     atom    3 type  1   force =     0.00000294    0.00012309   -0.00000441
     atom    4 type  1   force =     0.00008098   -0.00020217   -0.00001480
     atom    5 type  1   force =     0.00008098    0.00020217   -0.00001480
     atom    6 type  1   force =     0.00000294   -0.00012309   -0.00000441
     atom    7 type  3   force =    -0.00007957    0.00000000    0.00001238
     atom    8 type  3   force =    -0.00003337   -0.00012394    0.00001196
     atom    9 type  3   force =    -0.00000155    0.00001481    0.00001007
     atom   10 type  3   force =    -0.00000155   -0.00001481    0.00001007
     atom   11 type  3   force =    -0.00003337    0.00012394    0.00001196
     atom   12 type  1   force =     0.00001158    0.00000000    0.00000789
     atom   13 type  1   force =     0.00000294    0.00012309    0.00000441
     atom   14 type  1   force =     0.00008098   -0.00020217    0.00001480
     atom   15 type  1   force =     0.00008098    0.00020217    0.00001480
     atom   16 type  1   force =     0.00000294   -0.00012309    0.00000441
     atom   17 type  3   force =    -0.00007957    0.00000000   -0.00001238
     atom   18 type  3   force =    -0.00003337   -0.00012394   -0.00001196
     atom   19 type  3   force =    -0.00000155    0.00001481   -0.00001007
     atom   20 type  3   force =    -0.00000155   -0.00001481   -0.00001007
     atom   21 type  3   force =    -0.00003337    0.00012394   -0.00001196

     Total force =     0.000580     Total SCF correction =     0.000025
     Energy error            =      3.1E-07 Ry
     Gradient error          =      2.0E-04 Ry/Bohr

     number of scf cycles    =  12
     number of bfgs steps    =  11

     energy             old  =    -525.3974087070 Ry
     energy             new  =    -525.3974090137 Ry

     CASE: energy            _new < energy            _old

     new trust radius        =       0.0003341376 bohr
     new conv_thr            =            1.0E-10 Ry


ATOMIC_POSITIONS (angstrom)
Fe               8.1691460248        8.1692753900        8.1692753900
C                9.3894060117        8.1692753900        9.8035891843
C                8.5463170350        9.3296799635        9.8036502940
C                7.1821730623        8.8864561234        9.8037489559
C                7.1821730623        7.4520946566        9.8037489559
C                8.5463170350        7.0088708265        9.8036502940
H               10.4755952193        8.1692753900        9.7830169947
H                8.8819813022       10.3627020637        9.7831414616
H                6.3034373088        9.5248927597        9.7833409532
H                6.3034373088        6.8136580303        9.7833409532
H                8.8819813022        5.9758487263        9.7831414616
C                9.3894060117        8.1692753900        6.5349615957
C                8.5463170350        9.3296799635        6.5349004860
C                7.1821730623        8.8864561234        6.5348018241
C                7.1821730623        7.4520946566        6.5348018241
C                8.5463170350        7.0088708265        6.5349004860
H               10.4755952193        8.1692753900        6.5555337853
H                8.8819813022       10.3627020637        6.5554093184
H                6.3034373088        9.5248927597        6.5552098268
H                6.3034373088        6.8136580303        6.5552098268
H                8.8819813022        5.9758487263        6.5554093184



     Writing config-only to output data dir /home/duets/qe_workdirs/ferrocene_pbed3/ferrocene_pbed3.save/ :
     XML data file
     NEW-OLD atomic charge density approx. for the potential

     negative rho (up, down):  3.680E-03 0.000E+00

     total cpu time spent up to now is    10450.1 secs

     Self-consistent Calculation

     iteration #  1     ecut=    90.00 Ry     beta= 0.30
     Davidson diagonalization with overlap
     ethr =  1.00E-06,  avg # of iterations =  2.0

     Threshold (ethr) on eigenvalues was too large:
     Diagonalizing with lowered threshold

     Davidson diagonalization with overlap
     ethr =  6.89E-11,  avg # of iterations =  9.0

     negative rho (up, down):  3.680E-03 0.000E+00

     total cpu time spent up to now is    10543.4 secs

     total energy              =    -525.39740913 Ry
     estimated scf accuracy    <       0.00000008 Ry

     iteration #  2     ecut=    90.00 Ry     beta= 0.30
     Davidson diagonalization with overlap
     ethr =  1.18E-10,  avg # of iterations =  5.0

     negative rho (up, down):  3.680E-03 0.000E+00

     total cpu time spent up to now is    10589.2 secs

     total energy              =    -525.39740913 Ry
     estimated scf accuracy    <       0.00000007 Ry

     iteration #  3     ecut=    90.00 Ry     beta= 0.30
     Davidson diagonalization with overlap
     ethr =  1.13E-10,  avg # of iterations =  5.0

     negative rho (up, down):  3.680E-03 0.000E+00

     total cpu time spent up to now is    10633.7 secs

     total energy              =    -525.39740913 Ry
     estimated scf accuracy    <       0.00000003 Ry

     iteration #  4     ecut=    90.00 Ry     beta= 0.30
     Davidson diagonalization with overlap
     ethr =  4.72E-11,  avg # of iterations =  2.0

     negative rho (up, down):  3.680E-03 0.000E+00

     total cpu time spent up to now is    10680.2 secs

     total energy              =    -525.39740914 Ry
     estimated scf accuracy    <          3.5E-09 Ry

     iteration #  5     ecut=    90.00 Ry     beta= 0.30
     Davidson diagonalization with overlap
     ethr =  5.34E-12,  avg # of iterations =  5.0

     negative rho (up, down):  3.680E-03 0.000E+00

     total cpu time spent up to now is    10732.9 secs

     total energy              =    -525.39740913 Ry
     estimated scf accuracy    <          7.0E-09 Ry

     iteration #  6     ecut=    90.00 Ry     beta= 0.30
     Davidson diagonalization with overlap
     ethr =  5.34E-12,  avg # of iterations =  7.0

     negative rho (up, down):  3.680E-03 0.000E+00

     total cpu time spent up to now is    10789.2 secs

     total energy              =    -525.39740914 Ry
     estimated scf accuracy    <          9.0E-09 Ry

     iteration #  7     ecut=    90.00 Ry     beta= 0.30
     Davidson diagonalization with overlap
     ethr =  5.34E-12,  avg # of iterations =  5.0

     negative rho (up, down):  3.680E-03 0.000E+00

     total cpu time spent up to now is    10832.9 secs

     End of self-consistent calculation

          k = 0.0000 0.0000 0.0000 (212139 PWs)   bands (ev):

   -90.1303 -56.9338 -55.9271 -55.9271 -22.1483 -21.6715 -17.5133 -17.5133
   -17.4926 -17.4926 -13.3587 -13.3587 -13.1385 -13.1214 -13.1213 -12.7799
   -10.1468  -9.9449  -9.9449  -9.6340  -9.6340  -9.1689  -9.1689  -9.0283
    -9.0283  -8.7420  -6.6546  -6.6546  -6.2040  -6.2039  -4.4517  -4.3330
    -4.3330

     highest occupied level (ev):    -4.3330

!    total energy              =    -525.39740914 Ry
     estimated scf accuracy    <          8.2E-11 Ry

     The total energy is the sum of the following terms:
     one-electron contribution =   -2336.54702924 Ry
     hartree contribution      =    1172.39810316 Ry
     xc contribution           =     -88.23672622 Ry
     ewald contribution        =     864.82974235 Ry
     DFT-D3 Dispersion         =      -0.02568396 Ry
     one-center paw contrib.   =    -137.81581523 Ry

     convergence has been achieved in   7 iterations

     negative rho (up, down):  3.680E-03 0.000E+00

     Forces acting on atoms (cartesian axes, Ry/au):

     atom    1 type  2   force =     0.00001069    0.00000000    0.00000000
     atom    2 type  1   force =    -0.00001451    0.00000000    0.00000209
     atom    3 type  1   force =    -0.00000733   -0.00000309    0.00000317
     atom    4 type  1   force =     0.00002236   -0.00003210    0.00000247
     atom    5 type  1   force =     0.00002236    0.00003210    0.00000247
     atom    6 type  1   force =    -0.00000733    0.00000309    0.00000317
     atom    7 type  3   force =    -0.00004487    0.00000000   -0.00000066
     atom    8 type  3   force =    -0.00001250   -0.00004172   -0.00000018
     atom    9 type  3   force =     0.00002448   -0.00001474    0.00000116
     atom   10 type  3   force =     0.00002448    0.00001474    0.00000116
     atom   11 type  3   force =    -0.00001250    0.00004172   -0.00000018
     atom   12 type  1   force =    -0.00001451    0.00000000   -0.00000209
     atom   13 type  1   force =    -0.00000733   -0.00000309   -0.00000317
     atom   14 type  1   force =     0.00002236   -0.00003210   -0.00000247
     atom   15 type  1   force =     0.00002236    0.00003210   -0.00000247
     atom   16 type  1   force =    -0.00000733    0.00000309   -0.00000317
     atom   17 type  3   force =    -0.00004487    0.00000000    0.00000066
     atom   18 type  3   force =    -0.00001250   -0.00004172    0.00000018
     atom   19 type  3   force =     0.00002448   -0.00001474   -0.00000116
     atom   20 type  3   force =     0.00002448    0.00001474   -0.00000116
     atom   21 type  3   force =    -0.00001250    0.00004172    0.00000018

     Total force =     0.000148     Total SCF correction =     0.000017
     SCF correction compared to forces is large: reduce conv_thr to get better values
     Energy error            =      1.2E-07 Ry
     Gradient error          =      4.5E-05 Ry/Bohr

     bfgs converged in  13 scf cycles and  12 bfgs steps
     (criteria: energy <  1.0E-05 Ry, force <  1.0E-04 Ry/Bohr)

     End of BFGS Geometry Optimization

     Final energy             =    -525.3974091359 Ry

     File /home/duets/qe_workdirs/ferrocene_pbed3/ferrocene_pbed3.bfgs deleted, as requested
Begin final coordinates

ATOMIC_POSITIONS (angstrom)
Fe               8.1691460248        8.1692753900        8.1692753900
C                9.3894060117        8.1692753900        9.8035891843
C                8.5463170350        9.3296799635        9.8036502940
C                7.1821730623        8.8864561234        9.8037489559
C                7.1821730623        7.4520946566        9.8037489559
C                8.5463170350        7.0088708265        9.8036502940
H               10.4755952193        8.1692753900        9.7830169947
H                8.8819813022       10.3627020637        9.7831414616
H                6.3034373088        9.5248927597        9.7833409532
H                6.3034373088        6.8136580303        9.7833409532
H                8.8819813022        5.9758487263        9.7831414616
C                9.3894060117        8.1692753900        6.5349615957
C                8.5463170350        9.3296799635        6.5349004860
C                7.1821730623        8.8864561234        6.5348018241
C                7.1821730623        7.4520946566        6.5348018241
C                8.5463170350        7.0088708265        6.5349004860
H               10.4755952193        8.1692753900        6.5555337853
H                8.8819813022       10.3627020637        6.5554093184
H                6.3034373088        9.5248927597        6.5552098268
H                6.3034373088        6.8136580303        6.5552098268
H                8.8819813022        5.9758487263        6.5554093184
End final coordinates



     Writing all to output data dir /home/duets/qe_workdirs/ferrocene_pbed3/ferrocene_pbed3.save/ :
     XML data file, charge density, pseudopotentials, collected wavefunctions

     init_run     :     13.22s CPU     24.40s WALL (       1 calls)
     electrons    :   4602.22s CPU  10212.79s WALL (      13 calls)
     update_pot   :     38.54s CPU     61.87s WALL (      12 calls)
     forces       :    137.53s CPU    364.74s WALL (      13 calls)
     force_dftd3  :      0.09s CPU      0.82s WALL (      13 calls)

     Called by init_run:
     wfcinit      :      3.04s CPU      3.58s WALL (       1 calls)
     potinit      :      2.79s CPU      4.89s WALL (       1 calls)
     hinit0       :      1.62s CPU      2.42s WALL (       1 calls)

     Called by electrons:
     c_bands      :   1364.76s CPU   2324.70s WALL (     220 calls)
     sum_band     :   1733.70s CPU   3753.85s WALL (     220 calls)
     v_of_rho     :    478.56s CPU   1084.19s WALL (     221 calls)
     newd         :    859.28s CPU   2514.70s WALL (     221 calls)
     PAW_pot      :     64.77s CPU     71.90s WALL (     233 calls)
     mix_rho      :    106.69s CPU    306.76s WALL (     220 calls)
     energy_dftd3 :      0.05s CPU      0.39s WALL (      13 calls)

     Called by c_bands:
     init_us_2    :     26.35s CPU    365.37s WALL (     466 calls)
     regterg      :   1333.23s CPU   1977.47s WALL (     220 calls)

     Called by *egterg:
     rdiaghg      :      3.61s CPU      9.69s WALL (    1161 calls)
     h_psi        :   1155.34s CPU   1617.34s WALL (    1186 calls)
     s_psi        :     32.99s CPU     30.28s WALL (    1186 calls)
     g_psi        :      3.10s CPU      3.58s WALL (     965 calls)

     Called by h_psi:
     h_psi:calbec :     51.93s CPU    101.31s WALL (    1186 calls)
     vloc_psi     :   1064.06s CPU   1476.74s WALL (    1186 calls)
     add_vuspsi   :     34.91s CPU     33.58s WALL (    1186 calls)

     General routines
     calbec       :     70.03s CPU    137.82s WALL (    1470 calls)
     fft          :    463.01s CPU    859.25s WALL (    2559 calls)
     ffts         :     28.93s CPU     44.92s WALL (     441 calls)
     fftw         :    841.68s CPU   1002.06s WALL (   26818 calls)
     interpolate  :     56.81s CPU    104.98s WALL (     221 calls)
     davcio       :      2.22s CPU     50.35s WALL (    2946 calls)

     Parallel routines

     PWSCF        :      1h20m CPU      3h 1m WALL


   This run was terminated on:   2:46:47  14Jul2026            

=------------------------------------------------------------------------------=
   JOB DONE.
=------------------------------------------------------------------------------=
