13
cr_co6 Cr(CO)6 INITIAL GUESS - not relaxed, not a reference geometry
Cr      0.000000000000000      0.000000000000000      0.000000000000000
C       1.918000000000000      0.000000000000000      0.000000000000000
O       3.089000000000000      0.000000000000000      0.000000000000000
C      -1.918000000000000      0.000000000000000      0.000000000000000
O      -3.089000000000000      0.000000000000000      0.000000000000000
C       0.000000000000000      1.918000000000000      0.000000000000000
O       0.000000000000000      3.089000000000000      0.000000000000000
C       0.000000000000000     -1.918000000000000      0.000000000000000
O       0.000000000000000     -3.089000000000000      0.000000000000000
C       0.000000000000000      0.000000000000000      1.918000000000000
O       0.000000000000000      0.000000000000000      3.089000000000000
C       0.000000000000000      0.000000000000000     -1.918000000000000
O       0.000000000000000      0.000000000000000     -3.089000000000000
