9
ni_co4 Ni(CO)4 INITIAL GUESS - not relaxed, not a reference geometry
Ni      0.000000000000000      0.000000000000000      0.000000000000000
C       1.061169794770532      1.061169794770532      1.061169794770532
O       1.711843548147240      1.711843548147240      1.711843548147240
C       1.061169794770532     -1.061169794770532     -1.061169794770532
O       1.711843548147240     -1.711843548147240     -1.711843548147240
C      -1.061169794770532      1.061169794770532     -1.061169794770532
O      -1.711843548147240      1.711843548147240     -1.711843548147240
C      -1.061169794770532     -1.061169794770532      1.061169794770532
O      -1.711843548147240     -1.711843548147240      1.711843548147240
