21
ferrocene staggered D5d  PBE/60 Ry  E=-7147.870353 eV  dE=41.68 meV vs eclipsed  source=ferrocene__ring2_rotation_deg__+36
Fe      8.280911      8.280911      8.280911
C       9.500388      8.280911      9.925574
C       8.657896      9.440417      9.925636
C       7.294743      8.997546      9.925748
C       7.294743      7.564277      9.925748
C       8.657896      7.121406      9.925636
H      10.586595      8.280911      9.904521
H       8.993525     10.473523      9.904586
H       6.415968      9.636021      9.904685
H       6.415968      6.925802      9.904685
H       8.993525      6.088299      9.904586
C       9.267080      8.997546      6.636075
C       7.903926      9.440417      6.636186
C       7.061434      8.280911      6.636249
C       7.903926      7.121406      6.636186
C       9.267080      7.564277      6.636075
H      10.145854      9.636021      6.657137
H       7.568297     10.473523      6.657236
H       5.975227      8.280911      6.657301
H       7.568297      6.088299      6.657236
H      10.145854      6.925802      6.657137
