21
ferrocene eclipsed D5h  PBE/60 Ry  E=-7147.912031 eV  source=ferrocene
Fe      8.169118      8.169275      8.169275
C       9.389108      8.169275      9.808982
C       8.546213      9.329391      9.809032
C       7.182416      8.886284      9.809117
C       7.182416      7.452266      9.809117
C       8.546213      7.009160      9.809032
H      10.475374      8.169275      9.792465
H       8.881923     10.362480      9.792558
H       6.303624      9.524792      9.792717
H       6.303624      6.813759      9.792717
H       8.881923      5.976071      9.792558
C       9.389108      8.169275      6.529569
C       8.546213      9.329391      6.529519
C       7.182416      8.886284      6.529433
C       7.182416      7.452266      6.529433
C       8.546213      7.009160      6.529519
H      10.475374      8.169275      6.546086
H       8.881923     10.362480      6.545993
H       6.303624      9.524792      6.545834
H       6.303624      6.813759      6.545834
H       8.881923      5.976071      6.545993
