
     Program PWSCF v.7.4.1 starts on 30Jun2026 at  9: 4:39 

     This program is part of the open-source Quantum ESPRESSO suite
     for quantum simulation of materials; please cite
         "P. Giannozzi et al., J. Phys.:Condens. Matter 21 395502 (2009);
         "P. Giannozzi et al., J. Phys.:Condens. Matter 29 465901 (2017);
         "P. Giannozzi et al., J. Chem. Phys. 152 154105 (2020);
          URL http://www.quantum-espresso.org", 
     in publications or presentations arising from this work. More details at
     http://www.quantum-espresso.org/quote

     Parallel version (MPI), running on     4 processors

     MPI processes distributed on     1 nodes
     14183 MiB available memory on the printing compute node when the environment starts

     Reading input from qe/inputs/relax/cr_co6__mc_dist__+0.06.in

     Current dimensions of program PWSCF are:
     Max number of different atomic species (ntypx) = 10
     Max number of k-points (npk) =  40000
     Max angular momentum in pseudopotentials (lmaxx) =  4
     file C.pbe-n-kjpaw_psl.1.0.0.UPF: wavefunction(s)  2S 2P renormalized
     file O.pbe-n-kjpaw_psl.0.1.UPF: wavefunction(s)  2P renormalized

     gamma-point specific algorithms are used

     R & G space division:  proc/nbgrp/npool/nimage =       4
     Subspace diagonalization in iterative solution of the eigenvalue problem:
     a serial algorithm will be used


     Parallelization info
     --------------------
     sticks:   dense  smooth     PW     G-vecs:    dense   smooth      PW
     Min       11420    5712   1427              1835828   649044   81199
     Max       11424    5714   1430              1835832   649050   81206
     Sum       45685   22853   5713              7343317  2596191  324805

     Using Slab Decomposition



     bravais-lattice index     =            1
     lattice parameter (alat)  =      34.5782  a.u.
     unit-cell volume          =   41343.5220 (a.u.)^3
     number of atoms/cell      =           13
     number of atomic types    =            3
     number of electrons       =        74.00
     number of Kohn-Sham states=           37
     kinetic-energy cutoff     =      60.0000  Ry
     charge density cutoff     =     480.0000  Ry
     scf convergence threshold =      1.0E-08
     mixing beta               =       0.3000
     number of iterations used =            8  plain     mixing
     energy convergence thresh.=      1.0E-05
     force convergence thresh. =      1.0E-04
     Exchange-correlation= SLA  PW   PBX  PBC
                           (   1   4   3   4   0   0   0)
     nstep                     =           50

     Assuming isolated system, Martyna-Tuckerman method


     celldm(1)=  34.578209  celldm(2)=   0.000000  celldm(3)=   0.000000
     celldm(4)=   0.000000  celldm(5)=   0.000000  celldm(6)=   0.000000

     crystal axes: (cart. coord. in units of alat)
               a(1) = (   1.000000   0.000000   0.000000 )  
               a(2) = (   0.000000   1.000000   0.000000 )  
               a(3) = (   0.000000   0.000000   1.000000 )  

     reciprocal axes: (cart. coord. in units 2 pi/alat)
               b(1) = (  1.000000  0.000000  0.000000 )  
               b(2) = (  0.000000  1.000000  0.000000 )  
               b(3) = (  0.000000  0.000000  1.000000 )  


     PseudoPot. # 1 for C  read from file:
     /mnt/d/Rifat_kh/SSSP_1.3.0_PBE_efficiency/C.pbe-n-kjpaw_psl.1.0.0.UPF
     MD5 check sum: 5d2aebdfa2cae82b50a7e79e9516da0f
     Pseudo is Projector augmented-wave + core cor, Zval =  4.0
     Generated using "atomic" code by A. Dal Corso  v.5.1
     Shape of augmentation charge: PSQ
     Using radial grid of 1073 points,  4 beta functions with: 
                l(1) =   0
                l(2) =   0
                l(3) =   1
                l(4) =   1
     Q(r) pseudized with 0 coefficients 


     PseudoPot. # 2 for Cr read from file:
     /mnt/d/Rifat_kh/SSSP_1.3.0_PBE_efficiency/cr_pbe_v1.5.uspp.F.UPF
     MD5 check sum: 0d52af634a40206e4dee301ad30da4bf
     Pseudo is Ultrasoft + core correction, Zval = 14.0
     Generated by new atomic code, or converted to UPF format
     Using radial grid of  857 points,  6 beta functions with: 
                l(1) =   0
                l(2) =   0
                l(3) =   1
                l(4) =   1
                l(5) =   2
                l(6) =   2
     Q(r) pseudized with  8 coefficients,  rinner =    0.950   0.950   0.950
                                                       0.950   0.950

     PseudoPot. # 3 for O  read from file:
     /mnt/d/Rifat_kh/SSSP_1.3.0_PBE_efficiency/O.pbe-n-kjpaw_psl.0.1.UPF
     MD5 check sum: 0234752ac141de4415c5fc33072bef88
     Pseudo is Projector augmented-wave + core cor, Zval =  6.0
     Generated using "atomic" code by A. Dal Corso  v.5.0.99 svn rev. 10869
     Shape of augmentation charge: BESSEL
     Using radial grid of 1095 points,  4 beta functions with: 
                l(1) =   0
                l(2) =   0
                l(3) =   1
                l(4) =   1
     Q(r) pseudized with 0 coefficients 


     atomic species   valence    mass     pseudopotential
     C                 4.00    12.01100     C ( 1.00)
     Cr               14.00    51.99610     Cr( 1.00)
     O                 6.00    15.99900     O ( 1.00)

     48 Sym. Ops., with inversion, found



   Cartesian axes

     site n.     atom                  positions (alat units)
         1        Cr     tau(   1) = (   0.5000000   0.5000000   0.5000000  )
         2        C      tau(   2) = (   0.6080992   0.5000000   0.5000000  )
         3        O      tau(   3) = (   0.6720953   0.5000000   0.5000000  )
         4        C      tau(   4) = (   0.3919008   0.5000000   0.5000000  )
         5        O      tau(   5) = (   0.3279047   0.5000000   0.5000000  )
         6        C      tau(   6) = (   0.5000000   0.6080992   0.5000000  )
         7        O      tau(   7) = (   0.5000000   0.6720953   0.5000000  )
         8        C      tau(   8) = (   0.5000000   0.3919008   0.5000000  )
         9        O      tau(   9) = (   0.5000000   0.3279047   0.5000000  )
        10        C      tau(  10) = (   0.5000000   0.5000000   0.6080992  )
        11        O      tau(  11) = (   0.5000000   0.5000000   0.6720953  )
        12        C      tau(  12) = (   0.5000000   0.5000000   0.3919008  )
        13        O      tau(  13) = (   0.5000000   0.5000000   0.3279047  )

     number of k points=     1
                       cart. coord. in units 2pi/alat
        k(    1) = (   0.0000000   0.0000000   0.0000000), wk =   2.0000000

     Dense  grid:  3671659 G-vectors     FFT dimensions: ( 243, 243, 243)

     Smooth grid:  1298096 G-vectors     FFT dimensions: ( 180, 180, 180)

     Estimated max dynamical RAM per process >       3.53 GB

     Estimated total dynamical RAM >      14.12 GB

     Initial potential from superposition of free atoms

     starting charge      72.9997, renormalised to      74.0000

     negative rho (up, down):  4.651E-03 0.000E+00
     Starting wfcs are   58 randomized atomic wfcs
     Checking if some PAW data can be deallocated... 

     total cpu time spent up to now is       14.5 secs

     Self-consistent Calculation

     iteration #  1     ecut=    60.00 Ry     beta= 0.30
     Davidson diagonalization with overlap
     ethr =  1.00E-02,  avg # of iterations =  2.0

     negative rho (up, down):  9.792E-03 0.000E+00

     total cpu time spent up to now is       39.8 secs

     total energy              =    -534.64746440 Ry
     estimated scf accuracy    <       3.75465833 Ry

     iteration #  2     ecut=    60.00 Ry     beta= 0.30
     Davidson diagonalization with overlap
     ethr =  5.07E-03,  avg # of iterations =  6.0

     negative rho (up, down):  7.405E-03 0.000E+00

     total cpu time spent up to now is       62.9 secs

     total energy              =    -535.64672614 Ry
     estimated scf accuracy    <       6.51773003 Ry

     iteration #  3     ecut=    60.00 Ry     beta= 0.30
     Davidson diagonalization with overlap
     ethr =  5.07E-03,  avg # of iterations =  5.0

     negative rho (up, down):  1.205E-02 0.000E+00

     total cpu time spent up to now is       88.0 secs

     total energy              =    -535.65577035 Ry
     estimated scf accuracy    <       0.69596609 Ry

     iteration #  4     ecut=    60.00 Ry     beta= 0.30
     Davidson diagonalization with overlap
     ethr =  9.40E-04,  avg # of iterations =  8.0

     negative rho (up, down):  1.614E-02 0.000E+00

     total cpu time spent up to now is      116.1 secs

     total energy              =    -535.42004773 Ry
     estimated scf accuracy    <       5.16585505 Ry

     iteration #  5     ecut=    60.00 Ry     beta= 0.30
     Davidson diagonalization with overlap
     ethr =  9.40E-04,  avg # of iterations =  7.0

     negative rho (up, down):  1.593E-02 0.000E+00

     total cpu time spent up to now is      142.3 secs

     total energy              =    -535.96229510 Ry
     estimated scf accuracy    <       0.20865754 Ry

     iteration #  6     ecut=    60.00 Ry     beta= 0.30
     Davidson diagonalization with overlap
     ethr =  2.82E-04,  avg # of iterations =  5.0

     negative rho (up, down):  1.714E-02 0.000E+00

     total cpu time spent up to now is      163.8 secs

     total energy              =    -535.98288514 Ry
     estimated scf accuracy    <       0.00568165 Ry

     iteration #  7     ecut=    60.00 Ry     beta= 0.30
     Davidson diagonalization with overlap
     ethr =  7.68E-06,  avg # of iterations =  6.0

     negative rho (up, down):  1.738E-02 0.000E+00

     total cpu time spent up to now is      192.9 secs

     total energy              =    -535.99120868 Ry
     estimated scf accuracy    <       0.03108814 Ry

     iteration #  8     ecut=    60.00 Ry     beta= 0.30
     Davidson diagonalization with overlap
     ethr =  7.68E-06,  avg # of iterations =  5.0

     negative rho (up, down):  1.778E-02 0.000E+00

     total cpu time spent up to now is      217.5 secs

     total energy              =    -535.97246051 Ry
     estimated scf accuracy    <       0.05200105 Ry

     iteration #  9     ecut=    60.00 Ry     beta= 0.30
     Davidson diagonalization with overlap
     ethr =  7.68E-06,  avg # of iterations =  7.0

     negative rho (up, down):  1.897E-02 0.000E+00

     total cpu time spent up to now is      241.3 secs

     total energy              =    -535.97222863 Ry
     estimated scf accuracy    <       0.10371624 Ry

     iteration # 10     ecut=    60.00 Ry     beta= 0.30
     Davidson diagonalization with overlap
     ethr =  7.68E-06,  avg # of iterations =  7.0

     negative rho (up, down):  1.889E-02 0.000E+00

     total cpu time spent up to now is      267.2 secs

     total energy              =    -535.98272570 Ry
     estimated scf accuracy    <       0.02314613 Ry

     iteration # 11     ecut=    60.00 Ry     beta= 0.30
     Davidson diagonalization with overlap
     ethr =  7.68E-06,  avg # of iterations =  6.0

     negative rho (up, down):  1.939E-02 0.000E+00

     total cpu time spent up to now is      292.6 secs

     total energy              =    -535.98575202 Ry
     estimated scf accuracy    <       0.01258792 Ry

     iteration # 12     ecut=    60.00 Ry     beta= 0.30
     Davidson diagonalization with overlap
     ethr =  7.68E-06,  avg # of iterations =  6.0

     negative rho (up, down):  1.940E-02 0.000E+00

     total cpu time spent up to now is      313.7 secs

     total energy              =    -535.98688742 Ry
     estimated scf accuracy    <       0.00022861 Ry

     iteration # 13     ecut=    60.00 Ry     beta= 0.30
     Davidson diagonalization with overlap
     ethr =  3.09E-07,  avg # of iterations =  4.0

     negative rho (up, down):  1.944E-02 0.000E+00

     total cpu time spent up to now is      339.2 secs

     total energy              =    -535.98688139 Ry
     estimated scf accuracy    <       0.00040341 Ry

     iteration # 14     ecut=    60.00 Ry     beta= 0.30
     Davidson diagonalization with overlap
     ethr =  3.09E-07,  avg # of iterations =  2.0

     negative rho (up, down):  1.950E-02 0.000E+00

     total cpu time spent up to now is      362.8 secs

     total energy              =    -535.98685583 Ry
     estimated scf accuracy    <       0.00013866 Ry

     iteration # 15     ecut=    60.00 Ry     beta= 0.30
     Davidson diagonalization with overlap
     ethr =  1.87E-07,  avg # of iterations =  4.0

     negative rho (up, down):  1.956E-02 0.000E+00

     total cpu time spent up to now is      384.3 secs

     total energy              =    -535.98692512 Ry
     estimated scf accuracy    <       0.00006470 Ry

     iteration # 16     ecut=    60.00 Ry     beta= 0.30
     Davidson diagonalization with overlap
     ethr =  8.74E-08,  avg # of iterations =  2.0

     negative rho (up, down):  1.960E-02 0.000E+00

     total cpu time spent up to now is      407.4 secs

     total energy              =    -535.98690241 Ry
     estimated scf accuracy    <       0.00008162 Ry

     iteration # 17     ecut=    60.00 Ry     beta= 0.30
     Davidson diagonalization with overlap
     ethr =  8.74E-08,  avg # of iterations =  5.0

     negative rho (up, down):  1.960E-02 0.000E+00

     total cpu time spent up to now is      431.8 secs

     total energy              =    -535.98691012 Ry
     estimated scf accuracy    <       0.00000571 Ry

     iteration # 18     ecut=    60.00 Ry     beta= 0.30
     Davidson diagonalization with overlap
     ethr =  7.71E-09,  avg # of iterations =  5.0

     negative rho (up, down):  1.961E-02 0.000E+00

     total cpu time spent up to now is      454.7 secs

     total energy              =    -535.98691360 Ry
     estimated scf accuracy    <       0.00000349 Ry

     iteration # 19     ecut=    60.00 Ry     beta= 0.30
     Davidson diagonalization with overlap
     ethr =  4.71E-09,  avg # of iterations =  1.0

     negative rho (up, down):  1.961E-02 0.000E+00

     total cpu time spent up to now is      478.1 secs

     total energy              =    -535.98691333 Ry
     estimated scf accuracy    <       0.00000403 Ry

     iteration # 20     ecut=    60.00 Ry     beta= 0.30
     Davidson diagonalization with overlap
     ethr =  4.71E-09,  avg # of iterations =  1.0

     negative rho (up, down):  1.962E-02 0.000E+00

     total cpu time spent up to now is      500.6 secs

     total energy              =    -535.98691263 Ry
     estimated scf accuracy    <       0.00000324 Ry

     iteration # 21     ecut=    60.00 Ry     beta= 0.30
     Davidson diagonalization with overlap
     ethr =  4.38E-09,  avg # of iterations =  6.0

     negative rho (up, down):  1.963E-02 0.000E+00

     total cpu time spent up to now is      521.9 secs

     total energy              =    -535.98691349 Ry
     estimated scf accuracy    <       0.00000104 Ry

     iteration # 22     ecut=    60.00 Ry     beta= 0.30
     Davidson diagonalization with overlap
     ethr =  1.40E-09,  avg # of iterations =  4.0

     negative rho (up, down):  1.963E-02 0.000E+00

     total cpu time spent up to now is      546.2 secs

     total energy              =    -535.98691353 Ry
     estimated scf accuracy    <       0.00000266 Ry

     iteration # 23     ecut=    60.00 Ry     beta= 0.30
     Davidson diagonalization with overlap
     ethr =  1.40E-09,  avg # of iterations =  1.0

     negative rho (up, down):  1.964E-02 0.000E+00

     total cpu time spent up to now is      565.3 secs

     total energy              =    -535.98691313 Ry
     estimated scf accuracy    <       0.00000241 Ry

     iteration # 24     ecut=    60.00 Ry     beta= 0.30
     Davidson diagonalization with overlap
     ethr =  1.40E-09,  avg # of iterations =  5.0

     negative rho (up, down):  1.964E-02 0.000E+00

     total cpu time spent up to now is      589.9 secs

     total energy              =    -535.98691326 Ry
     estimated scf accuracy    <       0.00000048 Ry

     iteration # 25     ecut=    60.00 Ry     beta= 0.30
     Davidson diagonalization with overlap
     ethr =  6.50E-10,  avg # of iterations =  1.0

     negative rho (up, down):  1.964E-02 0.000E+00

     total cpu time spent up to now is      612.9 secs

     total energy              =    -535.98691328 Ry
     estimated scf accuracy    <       0.00000043 Ry

     iteration # 26     ecut=    60.00 Ry     beta= 0.30
     Davidson diagonalization with overlap
     ethr =  5.82E-10,  avg # of iterations =  1.0

     negative rho (up, down):  1.964E-02 0.000E+00

     total cpu time spent up to now is      632.2 secs

     total energy              =    -535.98691323 Ry
     estimated scf accuracy    <       0.00000039 Ry

     iteration # 27     ecut=    60.00 Ry     beta= 0.30
     Davidson diagonalization with overlap
     ethr =  5.29E-10,  avg # of iterations =  4.0

     negative rho (up, down):  1.964E-02 0.000E+00

     total cpu time spent up to now is      656.1 secs

     total energy              =    -535.98691322 Ry
     estimated scf accuracy    <       0.00000010 Ry

     iteration # 28     ecut=    60.00 Ry     beta= 0.30
     Davidson diagonalization with overlap
     ethr =  1.32E-10,  avg # of iterations =  7.0

     negative rho (up, down):  1.964E-02 0.000E+00

     total cpu time spent up to now is      682.2 secs

     total energy              =    -535.98691326 Ry
     estimated scf accuracy    <       0.00000016 Ry

     iteration # 29     ecut=    60.00 Ry     beta= 0.30
     Davidson diagonalization with overlap
     ethr =  1.32E-10,  avg # of iterations =  5.0

     negative rho (up, down):  1.964E-02 0.000E+00

     total cpu time spent up to now is      702.7 secs

     total energy              =    -535.98691326 Ry
     estimated scf accuracy    <       0.00000002 Ry

     iteration # 30     ecut=    60.00 Ry     beta= 0.30
     Davidson diagonalization with overlap
     ethr =  2.19E-11,  avg # of iterations =  5.0

     negative rho (up, down):  1.964E-02 0.000E+00

     total cpu time spent up to now is      728.2 secs

     total energy              =    -535.98691328 Ry
     estimated scf accuracy    <       0.00000002 Ry

     iteration # 31     ecut=    60.00 Ry     beta= 0.30
     Davidson diagonalization with overlap
     ethr =  2.19E-11,  avg # of iterations =  5.0

     negative rho (up, down):  1.964E-02 0.000E+00

     total cpu time spent up to now is      751.8 secs

     total energy              =    -535.98691328 Ry
     estimated scf accuracy    <       0.00000005 Ry

     iteration # 32     ecut=    60.00 Ry     beta= 0.30
     Davidson diagonalization with overlap
     ethr =  2.19E-11,  avg # of iterations =  2.0

     negative rho (up, down):  1.964E-02 0.000E+00

     total cpu time spent up to now is      771.4 secs

     total energy              =    -535.98691328 Ry
     estimated scf accuracy    <       0.00000006 Ry

     iteration # 33     ecut=    60.00 Ry     beta= 0.30
     Davidson diagonalization with overlap
     ethr =  2.19E-11,  avg # of iterations =  5.0

     negative rho (up, down):  1.964E-02 0.000E+00

     total cpu time spent up to now is      795.3 secs

     total energy              =    -535.98691328 Ry
     estimated scf accuracy    <       0.00000008 Ry

     iteration # 34     ecut=    60.00 Ry     beta= 0.30
     Davidson diagonalization with overlap
     ethr =  2.19E-11,  avg # of iterations =  1.0

     negative rho (up, down):  1.964E-02 0.000E+00

     total cpu time spent up to now is      815.4 secs

     total energy              =    -535.98691326 Ry
     estimated scf accuracy    <       0.00000008 Ry

     iteration # 35     ecut=    60.00 Ry     beta= 0.30
     Davidson diagonalization with overlap
     ethr =  2.19E-11,  avg # of iterations =  6.0

     negative rho (up, down):  1.964E-02 0.000E+00

     total cpu time spent up to now is      839.7 secs

     End of self-consistent calculation

          k = 0.0000 0.0000 0.0000 (162403 PWs)   bands (ev):

   -76.5363 -47.9164 -47.9164 -47.9163 -28.7402 -28.7196 -28.7195 -28.7195
   -28.7113 -28.7113 -15.2989 -14.2322 -14.2322 -14.2322 -14.1397 -14.1397
   -12.3720 -11.8384 -11.8384 -11.8384 -11.7744 -11.7744 -11.7744 -11.4343
   -11.4343 -11.4343 -11.2791 -11.2791 -11.2791 -11.0176 -11.0176 -10.3071
   -10.3070 -10.3070  -6.3627  -6.3626  -6.3626

     highest occupied level (ev):    -6.3626

!    total energy              =    -535.98691326 Ry
     estimated scf accuracy    <          3.9E-09 Ry

     The total energy is the sum of the following terms:
     one-electron contribution =   -2462.46472913 Ry
     hartree contribution      =    1234.28566652 Ry
     xc contribution           =     -92.81066858 Ry
     ewald contribution        =     879.27592390 Ry
     one-center paw contrib.   =     -94.27310598 Ry

     convergence has been achieved in  35 iterations

     negative rho (up, down):  1.964E-02 0.000E+00

     Forces acting on atoms (cartesian axes, Ry/au):

     atom    1 type  2   force =     0.00000000    0.00000000    0.00000000
     atom    2 type  1   force =     0.02699052   -0.00000000    0.00000000
     atom    3 type  3   force =    -0.07192690    0.00000000   -0.00000000
     atom    4 type  1   force =    -0.02699052   -0.00000000   -0.00000000
     atom    5 type  3   force =     0.07192690    0.00000000   -0.00000000
     atom    6 type  1   force =     0.00000000    0.02699052   -0.00000000
     atom    7 type  3   force =     0.00000000   -0.07192690    0.00000000
     atom    8 type  1   force =     0.00000000   -0.02699052   -0.00000000
     atom    9 type  3   force =     0.00000000    0.07192690    0.00000000
     atom   10 type  1   force =     0.00000000    0.00000000    0.02699052
     atom   11 type  3   force =     0.00000000    0.00000000   -0.07192690
     atom   12 type  1   force =     0.00000000    0.00000000   -0.02699052
     atom   13 type  3   force =     0.00000000    0.00000000    0.07192690

     Total force =     0.188180     Total SCF correction =     0.000167

     BFGS Geometry Optimization
     Energy error            =      3.5E-02 Ry
     Gradient error          =      7.2E-02 Ry/Bohr

     number of scf cycles    =   1
     number of bfgs steps    =   0

     energy             new  =    -535.9869132640 Ry

     new trust radius        =       0.0719268994 bohr
     new conv_thr            =       0.0000000100 Ry


ATOMIC_POSITIONS (angstrom)
Cr               9.1490000000        9.1490000000        9.1490000000
C               11.1412827660        9.1490000000        9.1490000000
O               12.2599379240        9.1490000000        9.1490000000
C                7.1567172340        9.1490000000        9.1490000000
O                6.0380620760        9.1490000000        9.1490000000
C                9.1490000000       11.1412827660        9.1490000000
O                9.1490000000       12.2599379240        9.1490000000
C                9.1490000000        7.1567172340        9.1490000000
O                9.1490000000        6.0380620760        9.1490000000
C                9.1490000000        9.1490000000       11.1412827660
O                9.1490000000        9.1490000000       12.2599379240
C                9.1490000000        9.1490000000        7.1567172340
O                9.1490000000        9.1490000000        6.0380620760



     Writing config-only to output data dir /home/duets/qe_workdirs/cr_co6__mc_dist__+0.06/cr_co6__mc_dist__+0.06.save/ :
     XML data file
     NEW-OLD atomic charge density approx. for the potential

     negative rho (up, down):  1.967E-02 0.000E+00

     total cpu time spent up to now is      863.8 secs

     Self-consistent Calculation

     iteration #  1     ecut=    60.00 Ry     beta= 0.30
     Davidson diagonalization with overlap
     ethr =  1.00E-06,  avg # of iterations = 17.0

     negative rho (up, down):  2.025E-02 0.000E+00

     total cpu time spent up to now is      905.9 secs

     total energy              =    -535.95632329 Ry
     estimated scf accuracy    <       0.03092085 Ry

     iteration #  2     ecut=    60.00 Ry     beta= 0.30
     Davidson diagonalization with overlap
     ethr =  4.18E-05,  avg # of iterations =  5.0

     negative rho (up, down):  2.025E-02 0.000E+00

     total cpu time spent up to now is      929.4 secs

     total energy              =    -535.95397604 Ry
     estimated scf accuracy    <       0.02346222 Ry

     iteration #  3     ecut=    60.00 Ry     beta= 0.30
     Davidson diagonalization with overlap
     ethr =  3.17E-05,  avg # of iterations =  5.0

     negative rho (up, down):  2.087E-02 0.000E+00

     total cpu time spent up to now is      949.7 secs

     total energy              =    -535.95466515 Ry
     estimated scf accuracy    <       0.01471530 Ry

     iteration #  4     ecut=    60.00 Ry     beta= 0.30
     Davidson diagonalization with overlap
     ethr =  1.99E-05,  avg # of iterations =  5.0

     negative rho (up, down):  2.097E-02 0.000E+00

     total cpu time spent up to now is      974.1 secs

     total energy              =    -535.95672551 Ry
     estimated scf accuracy    <       0.00041777 Ry

     iteration #  5     ecut=    60.00 Ry     beta= 0.30
     Davidson diagonalization with overlap
     ethr =  5.65E-07,  avg # of iterations =  7.0

     negative rho (up, down):  2.095E-02 0.000E+00

     total cpu time spent up to now is     1003.3 secs

     total energy              =    -535.95705137 Ry
     estimated scf accuracy    <       0.00057274 Ry

     iteration #  6     ecut=    60.00 Ry     beta= 0.30
     Davidson diagonalization with overlap
     ethr =  5.65E-07,  avg # of iterations =  3.0

     negative rho (up, down):  2.097E-02 0.000E+00

     total cpu time spent up to now is     1025.2 secs

     total energy              =    -535.95710901 Ry
     estimated scf accuracy    <       0.00023490 Ry

     iteration #  7     ecut=    60.00 Ry     beta= 0.30
     Davidson diagonalization with overlap
     ethr =  3.17E-07,  avg # of iterations =  6.0

     negative rho (up, down):  2.103E-02 0.000E+00

     total cpu time spent up to now is     1051.5 secs

     total energy              =    -535.95713298 Ry
     estimated scf accuracy    <       0.00032448 Ry

     iteration #  8     ecut=    60.00 Ry     beta= 0.30
     Davidson diagonalization with overlap
     ethr =  3.17E-07,  avg # of iterations =  5.0

     negative rho (up, down):  2.105E-02 0.000E+00

     total cpu time spent up to now is     1076.5 secs

     total energy              =    -535.95716420 Ry
     estimated scf accuracy    <       0.00000989 Ry

     iteration #  9     ecut=    60.00 Ry     beta= 0.30
     Davidson diagonalization with overlap
     ethr =  1.34E-08,  avg # of iterations =  7.0

     negative rho (up, down):  2.108E-02 0.000E+00

     total cpu time spent up to now is     1100.4 secs

     total energy              =    -535.95716963 Ry
     estimated scf accuracy    <       0.00001309 Ry

     iteration # 10     ecut=    60.00 Ry     beta= 0.30
     Davidson diagonalization with overlap
     ethr =  1.34E-08,  avg # of iterations =  2.0

     negative rho (up, down):  2.108E-02 0.000E+00

     total cpu time spent up to now is     1124.0 secs

     total energy              =    -535.95716674 Ry
     estimated scf accuracy    <       0.00000791 Ry

     iteration # 11     ecut=    60.00 Ry     beta= 0.30
     Davidson diagonalization with overlap
     ethr =  1.07E-08,  avg # of iterations =  6.0

     negative rho (up, down):  2.108E-02 0.000E+00

     total cpu time spent up to now is     1149.6 secs

     total energy              =    -535.95717002 Ry
     estimated scf accuracy    <       0.00001688 Ry

     iteration # 12     ecut=    60.00 Ry     beta= 0.30
     Davidson diagonalization with overlap
     ethr =  1.07E-08,  avg # of iterations =  2.0

     negative rho (up, down):  2.108E-02 0.000E+00

     total cpu time spent up to now is     1169.9 secs

     total energy              =    -535.95716983 Ry
     estimated scf accuracy    <       0.00001233 Ry

     iteration # 13     ecut=    60.00 Ry     beta= 0.30
     Davidson diagonalization with overlap
     ethr =  1.07E-08,  avg # of iterations =  1.0

     negative rho (up, down):  2.108E-02 0.000E+00

     total cpu time spent up to now is     1192.9 secs

     total energy              =    -535.95716827 Ry
     estimated scf accuracy    <       0.00001003 Ry

     iteration # 14     ecut=    60.00 Ry     beta= 0.30
     Davidson diagonalization with overlap
     ethr =  1.07E-08,  avg # of iterations =  5.0

     negative rho (up, down):  2.109E-02 0.000E+00

     total cpu time spent up to now is     1217.0 secs

     total energy              =    -535.95716920 Ry
     estimated scf accuracy    <       0.00000017 Ry

     iteration # 15     ecut=    60.00 Ry     beta= 0.30
     Davidson diagonalization with overlap
     ethr =  2.26E-10,  avg # of iterations =  8.0

     negative rho (up, down):  2.110E-02 0.000E+00

     total cpu time spent up to now is     1242.8 secs

     total energy              =    -535.95716987 Ry
     estimated scf accuracy    <       0.00000365 Ry

     iteration # 16     ecut=    60.00 Ry     beta= 0.30
     Davidson diagonalization with overlap
     ethr =  2.26E-10,  avg # of iterations =  6.0

     negative rho (up, down):  2.110E-02 0.000E+00

     total cpu time spent up to now is     1269.2 secs

     total energy              =    -535.95716928 Ry
     estimated scf accuracy    <       0.00000635 Ry

     iteration # 17     ecut=    60.00 Ry     beta= 0.30
     Davidson diagonalization with overlap
     ethr =  2.26E-10,  avg # of iterations =  8.0

     negative rho (up, down):  2.111E-02 0.000E+00

     total cpu time spent up to now is     1298.3 secs

     total energy              =    -535.95716955 Ry
     estimated scf accuracy    <       0.00000116 Ry

     iteration # 18     ecut=    60.00 Ry     beta= 0.30
     Davidson diagonalization with overlap
     ethr =  2.26E-10,  avg # of iterations =  1.0

     negative rho (up, down):  2.111E-02 0.000E+00

     total cpu time spent up to now is     1318.0 secs

     total energy              =    -535.95716962 Ry
     estimated scf accuracy    <       0.00000115 Ry

     iteration # 19     ecut=    60.00 Ry     beta= 0.30
     Davidson diagonalization with overlap
     ethr =  2.26E-10,  avg # of iterations =  5.0

     negative rho (up, down):  2.111E-02 0.000E+00

     total cpu time spent up to now is     1344.1 secs

     total energy              =    -535.95716930 Ry
     estimated scf accuracy    <       0.00000210 Ry

     iteration # 20     ecut=    60.00 Ry     beta= 0.30
     Davidson diagonalization with overlap
     ethr =  2.26E-10,  avg # of iterations =  7.0

     negative rho (up, down):  2.111E-02 0.000E+00

     total cpu time spent up to now is     1369.8 secs

     total energy              =    -535.95716944 Ry
     estimated scf accuracy    <       0.00000020 Ry

     iteration # 21     ecut=    60.00 Ry     beta= 0.30
     Davidson diagonalization with overlap
     ethr =  2.26E-10,  avg # of iterations =  2.0

     negative rho (up, down):  2.111E-02 0.000E+00

     total cpu time spent up to now is     1389.7 secs

     total energy              =    -535.95716943 Ry
     estimated scf accuracy    <       0.00000006 Ry

     iteration # 22     ecut=    60.00 Ry     beta= 0.30
     Davidson diagonalization with overlap
     ethr =  8.35E-11,  avg # of iterations =  5.0

     negative rho (up, down):  2.111E-02 0.000E+00

     total cpu time spent up to now is     1415.7 secs

     total energy              =    -535.95716946 Ry
     estimated scf accuracy    <       0.00000002 Ry

     iteration # 23     ecut=    60.00 Ry     beta= 0.30
     Davidson diagonalization with overlap
     ethr =  2.53E-11,  avg # of iterations =  2.0

     negative rho (up, down):  2.111E-02 0.000E+00

     total cpu time spent up to now is     1439.4 secs

     total energy              =    -535.95716945 Ry
     estimated scf accuracy    <       0.00000002 Ry

     iteration # 24     ecut=    60.00 Ry     beta= 0.30
     Davidson diagonalization with overlap
     ethr =  2.42E-11,  avg # of iterations =  5.0

     negative rho (up, down):  2.110E-02 0.000E+00

     total cpu time spent up to now is     1460.8 secs

     End of self-consistent calculation

          k = 0.0000 0.0000 0.0000 (162403 PWs)   bands (ev):

   -76.0091 -47.3875 -47.3875 -47.3875 -29.3879 -29.3699 -29.3699 -29.3699
   -29.3625 -29.3625 -14.8669 -14.0120 -14.0120 -14.0120 -13.9289 -13.9289
   -12.3203 -12.1290 -12.1290 -12.1290 -12.0299 -12.0299 -12.0299 -11.7818
   -11.7818 -11.7818 -11.6379 -11.6379 -11.6379 -10.7106 -10.7106 -10.1764
   -10.1764 -10.1764  -5.8360  -5.8360  -5.8360

     highest occupied level (ev):    -5.8360

!    total energy              =    -535.95716945 Ry
     estimated scf accuracy    <          5.8E-09 Ry

     The total energy is the sum of the following terms:
     one-electron contribution =   -2479.66757427 Ry
     hartree contribution      =    1243.13150938 Ry
     xc contribution           =     -93.39671098 Ry
     ewald contribution        =     888.24019929 Ry
     one-center paw contrib.   =     -94.26459287 Ry

     convergence has been achieved in  24 iterations

     negative rho (up, down):  2.110E-02 0.000E+00

     Forces acting on atoms (cartesian axes, Ry/au):

     atom    1 type  2   force =     0.00000000    0.00000000    0.00000000
     atom    2 type  1   force =    -0.20867701   -0.00000000    0.00000000
     atom    3 type  3   force =     0.16111734    0.00000000   -0.00000000
     atom    4 type  1   force =     0.20867701   -0.00000000    0.00000000
     atom    5 type  3   force =    -0.16111734    0.00000000    0.00000000
     atom    6 type  1   force =     0.00000000   -0.20867701   -0.00000000
     atom    7 type  3   force =     0.00000000    0.16111734   -0.00000000
     atom    8 type  1   force =     0.00000000    0.20867701   -0.00000000
     atom    9 type  3   force =     0.00000000   -0.16111734   -0.00000000
     atom   10 type  1   force =     0.00000000    0.00000000   -0.20867701
     atom   11 type  3   force =     0.00000000    0.00000000    0.16111734
     atom   12 type  1   force =     0.00000000    0.00000000    0.20867701
     atom   13 type  3   force =     0.00000000    0.00000000   -0.16111734

     Total force =     0.645778     Total SCF correction =     0.000103
     Energy error            =      3.0E-02 Ry
     Gradient error          =      2.1E-01 Ry/Bohr

     number of scf cycles    =   2
     number of bfgs steps    =   1

     energy             old  =    -535.9869132640 Ry
     energy             new  =    -535.9571694499 Ry

     CASE: energy            _new > energy            _old

     new trust radius        =       0.0195459827 bohr
     new conv_thr            =       0.0000000100 Ry


ATOMIC_POSITIONS (angstrom)
Cr               9.1490000000        9.1490000000        9.1490000000
C               11.1308813114        9.1490000000        9.1490000000
O               12.2876567114        9.1490000000        9.1490000000
C                7.1671186886        9.1490000000        9.1490000000
O                6.0103432886        9.1490000000        9.1490000000
C                9.1490000000       11.1308813114        9.1490000000
O                9.1490000000       12.2876567114        9.1490000000
C                9.1490000000        7.1671186886        9.1490000000
O                9.1490000000        6.0103432886        9.1490000000
C                9.1490000000        9.1490000000       11.1308813114
O                9.1490000000        9.1490000000       12.2876567114
C                9.1490000000        9.1490000000        7.1671186886
O                9.1490000000        9.1490000000        6.0103432886



     Writing config-only to output data dir /home/duets/qe_workdirs/cr_co6__mc_dist__+0.06/cr_co6__mc_dist__+0.06.save/ :
     XML data file
     NEW-OLD atomic charge density approx. for the potential

     negative rho (up, down):  2.095E-02 0.000E+00

     total cpu time spent up to now is     1485.5 secs

     Self-consistent Calculation

     iteration #  1     ecut=    60.00 Ry     beta= 0.30
     Davidson diagonalization with overlap
     ethr =  1.00E-06,  avg # of iterations = 16.0

     negative rho (up, down):  2.052E-02 0.000E+00

     total cpu time spent up to now is     1526.8 secs

     total energy              =    -535.99071580 Ry
     estimated scf accuracy    <       0.01955896 Ry

     iteration #  2     ecut=    60.00 Ry     beta= 0.30
     Davidson diagonalization with overlap
     ethr =  2.64E-05,  avg # of iterations =  6.0

     negative rho (up, down):  2.069E-02 0.000E+00

     total cpu time spent up to now is     1551.8 secs

     total energy              =    -535.98987814 Ry
     estimated scf accuracy    <       0.02272388 Ry

     iteration #  3     ecut=    60.00 Ry     beta= 0.30
     Davidson diagonalization with overlap
     ethr =  2.64E-05,  avg # of iterations =  6.0

     negative rho (up, down):  2.024E-02 0.000E+00

     total cpu time spent up to now is     1577.0 secs

     total energy              =    -535.99137647 Ry
     estimated scf accuracy    <       0.00637469 Ry

     iteration #  4     ecut=    60.00 Ry     beta= 0.30
     Davidson diagonalization with overlap
     ethr =  8.61E-06,  avg # of iterations =  2.0

     negative rho (up, down):  2.002E-02 0.000E+00

     total cpu time spent up to now is     1597.8 secs

     total energy              =    -535.99139598 Ry
     estimated scf accuracy    <       0.00180002 Ry

     iteration #  5     ecut=    60.00 Ry     beta= 0.30
     Davidson diagonalization with overlap
     ethr =  2.43E-06,  avg # of iterations =  6.0

     negative rho (up, down):  2.018E-02 0.000E+00

     total cpu time spent up to now is     1624.1 secs

     total energy              =    -535.99163438 Ry
     estimated scf accuracy    <       0.00357698 Ry

     iteration #  6     ecut=    60.00 Ry     beta= 0.30
     Davidson diagonalization with overlap
     ethr =  2.43E-06,  avg # of iterations =  6.0

     negative rho (up, down):  2.007E-02 0.000E+00

     total cpu time spent up to now is     1649.1 secs

     total energy              =    -535.99209981 Ry
     estimated scf accuracy    <       0.00027124 Ry

     iteration #  7     ecut=    60.00 Ry     beta= 0.30
     Davidson diagonalization with overlap
     ethr =  3.67E-07,  avg # of iterations =  5.0

     negative rho (up, down):  2.003E-02 0.000E+00

     total cpu time spent up to now is     1670.1 secs

     total energy              =    -535.99213283 Ry
     estimated scf accuracy    <       0.00002000 Ry

     iteration #  8     ecut=    60.00 Ry     beta= 0.30
     Davidson diagonalization with overlap
     ethr =  2.70E-08,  avg # of iterations =  6.0

     negative rho (up, down):  2.000E-02 0.000E+00

     total cpu time spent up to now is     1697.7 secs

     total energy              =    -535.99215153 Ry
     estimated scf accuracy    <       0.00001350 Ry

     iteration #  9     ecut=    60.00 Ry     beta= 0.30
     Davidson diagonalization with overlap
     ethr =  1.82E-08,  avg # of iterations =  4.0

     negative rho (up, down):  2.000E-02 0.000E+00

     total cpu time spent up to now is     1722.6 secs

     total energy              =    -535.99214504 Ry
     estimated scf accuracy    <       0.00002893 Ry

     iteration # 10     ecut=    60.00 Ry     beta= 0.30
     Davidson diagonalization with overlap
     ethr =  1.82E-08,  avg # of iterations =  6.0

     negative rho (up, down):  2.002E-02 0.000E+00

     total cpu time spent up to now is     1744.8 secs

     total energy              =    -535.99214974 Ry
     estimated scf accuracy    <       0.00000695 Ry

     iteration # 11     ecut=    60.00 Ry     beta= 0.30
     Davidson diagonalization with overlap
     ethr =  9.39E-09,  avg # of iterations =  1.0

     negative rho (up, down):  2.002E-02 0.000E+00

     total cpu time spent up to now is     1768.0 secs

     total energy              =    -535.99214909 Ry
     estimated scf accuracy    <       0.00000708 Ry

     iteration # 12     ecut=    60.00 Ry     beta= 0.30
     Davidson diagonalization with overlap
     ethr =  9.39E-09,  avg # of iterations =  2.0

     negative rho (up, down):  2.004E-02 0.000E+00

     total cpu time spent up to now is     1791.9 secs

     total energy              =    -535.99214796 Ry
     estimated scf accuracy    <       0.00000363 Ry

     iteration # 13     ecut=    60.00 Ry     beta= 0.30
     Davidson diagonalization with overlap
     ethr =  4.91E-09,  avg # of iterations =  7.0

     negative rho (up, down):  2.002E-02 0.000E+00

     total cpu time spent up to now is     1814.1 secs

     total energy              =    -535.99214857 Ry
     estimated scf accuracy    <       0.00002306 Ry

     iteration # 14     ecut=    60.00 Ry     beta= 0.30
     Davidson diagonalization with overlap
     ethr =  4.91E-09,  avg # of iterations =  6.0

     negative rho (up, down):  2.002E-02 0.000E+00

     total cpu time spent up to now is     1839.4 secs

     total energy              =    -535.99214962 Ry
     estimated scf accuracy    <       0.00000243 Ry

     iteration # 15     ecut=    60.00 Ry     beta= 0.30
     Davidson diagonalization with overlap
     ethr =  3.28E-09,  avg # of iterations =  1.0

     negative rho (up, down):  2.002E-02 0.000E+00

     total cpu time spent up to now is     1862.9 secs

     total energy              =    -535.99214904 Ry
     estimated scf accuracy    <       0.00000251 Ry

     iteration # 16     ecut=    60.00 Ry     beta= 0.30
     Davidson diagonalization with overlap
     ethr =  3.28E-09,  avg # of iterations =  5.0

     negative rho (up, down):  2.002E-02 0.000E+00

     total cpu time spent up to now is     1884.3 secs

     total energy              =    -535.99214937 Ry
     estimated scf accuracy    <       0.00000050 Ry

     iteration # 17     ecut=    60.00 Ry     beta= 0.30
     Davidson diagonalization with overlap
     ethr =  6.76E-10,  avg # of iterations =  5.0

     negative rho (up, down):  2.002E-02 0.000E+00

     total cpu time spent up to now is     1909.9 secs

     total energy              =    -535.99214946 Ry
     estimated scf accuracy    <       0.00000020 Ry

     iteration # 18     ecut=    60.00 Ry     beta= 0.30
     Davidson diagonalization with overlap
     ethr =  2.74E-10,  avg # of iterations =  6.0

     negative rho (up, down):  2.001E-02 0.000E+00

     total cpu time spent up to now is     1935.7 secs

     total energy              =    -535.99214941 Ry
     estimated scf accuracy    <       0.00000114 Ry

     iteration # 19     ecut=    60.00 Ry     beta= 0.30
     Davidson diagonalization with overlap
     ethr =  2.74E-10,  avg # of iterations =  6.0

     negative rho (up, down):  2.002E-02 0.000E+00

     total cpu time spent up to now is     1958.2 secs

     total energy              =    -535.99214951 Ry
     estimated scf accuracy    <       0.00000017 Ry

     iteration # 20     ecut=    60.00 Ry     beta= 0.30
     Davidson diagonalization with overlap
     ethr =  2.25E-10,  avg # of iterations =  6.0

     negative rho (up, down):  2.001E-02 0.000E+00

     total cpu time spent up to now is     1983.6 secs

     total energy              =    -535.99214952 Ry
     estimated scf accuracy    <       0.00000117 Ry

     iteration # 21     ecut=    60.00 Ry     beta= 0.30
     Davidson diagonalization with overlap
     ethr =  2.25E-10,  avg # of iterations =  1.0

     negative rho (up, down):  2.001E-02 0.000E+00

     total cpu time spent up to now is     2007.1 secs

     total energy              =    -535.99214941 Ry
     estimated scf accuracy    <       0.00000111 Ry

     iteration # 22     ecut=    60.00 Ry     beta= 0.30
     Davidson diagonalization with overlap
     ethr =  2.25E-10,  avg # of iterations =  6.0

     negative rho (up, down):  2.001E-02 0.000E+00

     total cpu time spent up to now is     2028.7 secs

     total energy              =    -535.99214946 Ry
     estimated scf accuracy    <       0.00000011 Ry

     iteration # 23     ecut=    60.00 Ry     beta= 0.30
     Davidson diagonalization with overlap
     ethr =  1.55E-10,  avg # of iterations =  1.0

     negative rho (up, down):  2.001E-02 0.000E+00

     total cpu time spent up to now is     2052.1 secs

     total energy              =    -535.99214944 Ry
     estimated scf accuracy    <       0.00000014 Ry

     iteration # 24     ecut=    60.00 Ry     beta= 0.30
     Davidson diagonalization with overlap
     ethr =  1.55E-10,  avg # of iterations =  2.0

     negative rho (up, down):  2.002E-02 0.000E+00

     total cpu time spent up to now is     2076.1 secs

     total energy              =    -535.99214944 Ry
     estimated scf accuracy    <       0.00000006 Ry

     iteration # 25     ecut=    60.00 Ry     beta= 0.30
     Davidson diagonalization with overlap
     ethr =  8.67E-11,  avg # of iterations =  5.0

     negative rho (up, down):  2.002E-02 0.000E+00

     total cpu time spent up to now is     2096.8 secs

     End of self-consistent calculation

          k = 0.0000 0.0000 0.0000 (162403 PWs)   bands (ev):

   -76.3969 -47.7764 -47.7764 -47.7764 -28.9135 -28.8936 -28.8936 -28.8936
   -28.8857 -28.8857 -15.1811 -14.1704 -14.1704 -14.1704 -14.0800 -14.0800
   -12.3606 -11.9126 -11.9126 -11.9126 -11.8364 -11.8364 -11.8364 -11.5250
   -11.5250 -11.5250 -11.3728 -11.3728 -11.3728 -10.9388 -10.9388 -10.2793
   -10.2793 -10.2793  -6.2238  -6.2238  -6.2238

     highest occupied level (ev):    -6.2238

!    total energy              =    -535.99214944 Ry
     estimated scf accuracy    <          8.2E-10 Ry

     The total energy is the sum of the following terms:
     one-electron contribution =   -2467.04419100 Ry
     hartree contribution      =    1236.63933076 Ry
     xc contribution           =     -92.96304727 Ry
     ewald contribution        =     881.64587198 Ry
     one-center paw contrib.   =     -94.27011391 Ry

     convergence has been achieved in  25 iterations

     negative rho (up, down):  2.002E-02 0.000E+00

     Forces acting on atoms (cartesian axes, Ry/au):

     atom    1 type  2   force =     0.00000000    0.00000000    0.00000000
     atom    2 type  1   force =    -0.02890595    0.00000000    0.00000000
     atom    3 type  3   force =    -0.01682446    0.00000000    0.00000000
     atom    4 type  1   force =     0.02890595    0.00000000    0.00000000
     atom    5 type  3   force =     0.01682446    0.00000000    0.00000000
     atom    6 type  1   force =     0.00000000   -0.02890595    0.00000000
     atom    7 type  3   force =     0.00000000   -0.01682446    0.00000000
     atom    8 type  1   force =     0.00000000    0.02890595    0.00000000
     atom    9 type  3   force =     0.00000000    0.01682446    0.00000000
     atom   10 type  1   force =     0.00000000    0.00000000   -0.02890595
     atom   11 type  3   force =     0.00000000    0.00000000   -0.01682446
     atom   12 type  1   force =     0.00000000    0.00000000    0.02890595
     atom   13 type  3   force =     0.00000000    0.00000000    0.01682446

     Total force =     0.081925     Total SCF correction =     0.000018
     Energy error            =      5.2E-03 Ry
     Gradient error          =      2.9E-02 Ry/Bohr

     number of scf cycles    =   3
     number of bfgs steps    =   1

     energy             old  =    -535.9869132640 Ry
     energy             new  =    -535.9921494441 Ry

     CASE: energy            _new < energy            _old

     new trust radius        =       0.0294456180 bohr
     new conv_thr            =       0.0000000100 Ry


ATOMIC_POSITIONS (angstrom)
Cr               9.1490000000        9.1490000000        9.1490000000
C               11.1166268109        9.1490000000        9.1490000000
O               12.2720747614        9.1490000000        9.1490000000
C                7.1813731891        9.1490000000        9.1490000000
O                6.0259252386        9.1490000000        9.1490000000
C                9.1490000000       11.1166268109        9.1490000000
O                9.1490000000       12.2720747614        9.1490000000
C                9.1490000000        7.1813731891        9.1490000000
O                9.1490000000        6.0259252386        9.1490000000
C                9.1490000000        9.1490000000       11.1166268109
O                9.1490000000        9.1490000000       12.2720747614
C                9.1490000000        9.1490000000        7.1813731891
O                9.1490000000        9.1490000000        6.0259252386



     Writing config-only to output data dir /home/duets/qe_workdirs/cr_co6__mc_dist__+0.06/cr_co6__mc_dist__+0.06.save/ :
     XML data file
     NEW-OLD atomic charge density approx. for the potential

     negative rho (up, down):  2.005E-02 0.000E+00

     total cpu time spent up to now is     2122.2 secs

     Self-consistent Calculation

     iteration #  1     ecut=    60.00 Ry     beta= 0.30
     Davidson diagonalization with overlap
     ethr =  1.00E-06,  avg # of iterations = 13.0

     negative rho (up, down):  1.990E-02 0.000E+00

     total cpu time spent up to now is     2159.8 secs

     total energy              =    -535.99912179 Ry
     estimated scf accuracy    <       0.00156582 Ry

     iteration #  2     ecut=    60.00 Ry     beta= 0.30
     Davidson diagonalization with overlap
     ethr =  2.12E-06,  avg # of iterations =  5.0

     negative rho (up, down):  1.970E-02 0.000E+00

     total cpu time spent up to now is     2184.3 secs

     total energy              =    -535.99906856 Ry
     estimated scf accuracy    <       0.00192008 Ry

     iteration #  3     ecut=    60.00 Ry     beta= 0.30
     Davidson diagonalization with overlap
     ethr =  2.12E-06,  avg # of iterations =  5.0

     negative rho (up, down):  1.970E-02 0.000E+00

     total cpu time spent up to now is     2206.0 secs

     total energy              =    -535.99918831 Ry
     estimated scf accuracy    <       0.00046795 Ry

     iteration #  4     ecut=    60.00 Ry     beta= 0.30
     Davidson diagonalization with overlap
     ethr =  6.32E-07,  avg # of iterations =  5.0

     negative rho (up, down):  1.966E-02 0.000E+00

     total cpu time spent up to now is     2230.6 secs

     total energy              =    -535.99921546 Ry
     estimated scf accuracy    <       0.00004942 Ry

     iteration #  5     ecut=    60.00 Ry     beta= 0.30
     Davidson diagonalization with overlap
     ethr =  6.68E-08,  avg # of iterations =  4.0

     negative rho (up, down):  1.963E-02 0.000E+00

     total cpu time spent up to now is     2255.9 secs

     total energy              =    -535.99922740 Ry
     estimated scf accuracy    <       0.00000169 Ry

     iteration #  6     ecut=    60.00 Ry     beta= 0.30
     Davidson diagonalization with overlap
     ethr =  2.28E-09,  avg # of iterations =  9.0

     negative rho (up, down):  1.961E-02 0.000E+00

     total cpu time spent up to now is     2283.2 secs

     total energy              =    -535.99922942 Ry
     estimated scf accuracy    <       0.00000378 Ry

     iteration #  7     ecut=    60.00 Ry     beta= 0.30
     Davidson diagonalization with overlap
     ethr =  2.28E-09,  avg # of iterations =  6.0

     negative rho (up, down):  1.960E-02 0.000E+00

     total cpu time spent up to now is     2308.4 secs

     total energy              =    -535.99922980 Ry
     estimated scf accuracy    <       0.00000022 Ry

     iteration #  8     ecut=    60.00 Ry     beta= 0.30
     Davidson diagonalization with overlap
     ethr =  2.94E-10,  avg # of iterations =  5.0

     negative rho (up, down):  1.958E-02 0.000E+00

     total cpu time spent up to now is     2334.7 secs

     total energy              =    -535.99922981 Ry
     estimated scf accuracy    <       0.00000023 Ry

     iteration #  9     ecut=    60.00 Ry     beta= 0.30
     Davidson diagonalization with overlap
     ethr =  2.94E-10,  avg # of iterations =  5.0

     negative rho (up, down):  1.958E-02 0.000E+00

     total cpu time spent up to now is     2357.5 secs

     total energy              =    -535.99922984 Ry
     estimated scf accuracy    <       0.00000007 Ry

     iteration # 10     ecut=    60.00 Ry     beta= 0.30
     Davidson diagonalization with overlap
     ethr =  9.34E-11,  avg # of iterations =  5.0

     negative rho (up, down):  1.957E-02 0.000E+00

     total cpu time spent up to now is     2384.0 secs

     total energy              =    -535.99922986 Ry
     estimated scf accuracy    <       0.00000002 Ry

     iteration # 11     ecut=    60.00 Ry     beta= 0.30
     Davidson diagonalization with overlap
     ethr =  2.32E-11,  avg # of iterations =  2.0

     negative rho (up, down):  1.956E-02 0.000E+00

     total cpu time spent up to now is     2407.6 secs

     End of self-consistent calculation

          k = 0.0000 0.0000 0.0000 (162403 PWs)   bands (ev):

   -76.3902 -47.7770 -47.7770 -47.7770 -28.9286 -28.9074 -28.9074 -28.9074
   -28.8990 -28.8990 -15.2286 -14.1697 -14.1697 -14.1697 -14.0790 -14.0790
   -12.3845 -11.9393 -11.9393 -11.9393 -11.8574 -11.8574 -11.8574 -11.5324
   -11.5324 -11.5324 -11.3744 -11.3744 -11.3744 -10.9894 -10.9894 -10.2768
   -10.2768 -10.2768  -6.2697  -6.2697  -6.2697

     highest occupied level (ev):    -6.2697

!    total energy              =    -535.99922988 Ry
     estimated scf accuracy    <          5.4E-09 Ry

     The total energy is the sum of the following terms:
     one-electron contribution =   -2476.18079622 Ry
     hartree contribution      =    1241.20544950 Ry
     xc contribution           =     -93.02134624 Ry
     ewald contribution        =     886.26702135 Ry
     one-center paw contrib.   =     -94.26955827 Ry

     convergence has been achieved in  11 iterations

     negative rho (up, down):  1.956E-02 0.000E+00

     Forces acting on atoms (cartesian axes, Ry/au):

     atom    1 type  2   force =     0.00000000    0.00000000    0.00000000
     atom    2 type  1   force =    -0.02869368    0.00000000    0.00000000
     atom    3 type  3   force =    -0.01049563   -0.00000000    0.00000000
     atom    4 type  1   force =     0.02869368    0.00000000    0.00000000
     atom    5 type  3   force =     0.01049563    0.00000000   -0.00000000
     atom    6 type  1   force =    -0.00000000   -0.02869368    0.00000000
     atom    7 type  3   force =    -0.00000000   -0.01049563   -0.00000000
     atom    8 type  1   force =    -0.00000000    0.02869368    0.00000000
     atom    9 type  3   force =     0.00000000    0.01049563   -0.00000000
     atom   10 type  1   force =     0.00000000    0.00000000   -0.02869368
     atom   11 type  3   force =     0.00000000    0.00000000   -0.01049563
     atom   12 type  1   force =     0.00000000    0.00000000    0.02869368
     atom   13 type  3   force =     0.00000000    0.00000000    0.01049563

     Total force =     0.074839     Total SCF correction =     0.000090
     Energy error            =      7.1E-03 Ry
     Gradient error          =      2.9E-02 Ry/Bohr

     number of scf cycles    =   4
     number of bfgs steps    =   2

     energy             old  =    -535.9921494441 Ry
     energy             new  =    -535.9992298848 Ry

     CASE: energy            _new < energy            _old


     WARNING: bfgs curvature condition failed, Theta= 0.942
     new trust radius        =       0.0323901798 bohr
     new conv_thr            =       0.0000000100 Ry


ATOMIC_POSITIONS (angstrom)
Cr               9.1490000000        9.1490000000        9.1490000000
C               11.0997964172        9.1490000000        9.1490000000
O               12.2549346164        9.1490000000        9.1490000000
C                7.1982035828        9.1490000000        9.1490000000
O                6.0430653836        9.1490000000        9.1490000000
C                9.1490000000       11.0997964172        9.1490000000
O                9.1490000000       12.2549346164        9.1490000000
C                9.1490000000        7.1982035828        9.1490000000
O                9.1490000000        6.0430653836        9.1490000000
C                9.1490000000        9.1490000000       11.0997964172
O                9.1490000000        9.1490000000       12.2549346164
C                9.1490000000        9.1490000000        7.1982035828
O                9.1490000000        9.1490000000        6.0430653836



     Writing config-only to output data dir /home/duets/qe_workdirs/cr_co6__mc_dist__+0.06/cr_co6__mc_dist__+0.06.save/ :
     XML data file
     NEW-OLD atomic charge density approx. for the potential

     negative rho (up, down):  1.960E-02 0.000E+00

     total cpu time spent up to now is     2429.1 secs

     Self-consistent Calculation

     iteration #  1     ecut=    60.00 Ry     beta= 0.30
     Davidson diagonalization with overlap
     ethr =  1.00E-06,  avg # of iterations = 14.0

     negative rho (up, down):  1.942E-02 0.000E+00

     total cpu time spent up to now is     2471.5 secs

     total energy              =    -536.00575778 Ry
     estimated scf accuracy    <       0.00211086 Ry

     iteration #  2     ecut=    60.00 Ry     beta= 0.30
     Davidson diagonalization with overlap
     ethr =  2.85E-06,  avg # of iterations =  6.0

     negative rho (up, down):  1.916E-02 0.000E+00

     total cpu time spent up to now is     2492.3 secs

     total energy              =    -536.00567963 Ry
     estimated scf accuracy    <       0.00311185 Ry

     iteration #  3     ecut=    60.00 Ry     beta= 0.30
     Davidson diagonalization with overlap
     ethr =  2.85E-06,  avg # of iterations =  5.0

     negative rho (up, down):  1.916E-02 0.000E+00

     total cpu time spent up to now is     2516.6 secs

     total energy              =    -536.00590886 Ry
     estimated scf accuracy    <       0.00054582 Ry

     iteration #  4     ecut=    60.00 Ry     beta= 0.30
     Davidson diagonalization with overlap
     ethr =  7.38E-07,  avg # of iterations =  2.0

     negative rho (up, down):  1.916E-02 0.000E+00

     total cpu time spent up to now is     2536.4 secs

     total energy              =    -536.00589802 Ry
     estimated scf accuracy    <       0.00011738 Ry

     iteration #  5     ecut=    60.00 Ry     beta= 0.30
     Davidson diagonalization with overlap
     ethr =  1.59E-07,  avg # of iterations =  6.0

     negative rho (up, down):  1.907E-02 0.000E+00

     total cpu time spent up to now is     2562.1 secs

     total energy              =    -536.00589903 Ry
     estimated scf accuracy    <       0.00027115 Ry

     iteration #  6     ecut=    60.00 Ry     beta= 0.30
     Davidson diagonalization with overlap
     ethr =  1.59E-07,  avg # of iterations =  6.0

     negative rho (up, down):  1.907E-02 0.000E+00

     total cpu time spent up to now is     2587.5 secs

     total energy              =    -536.00593914 Ry
     estimated scf accuracy    <       0.00003861 Ry

     iteration #  7     ecut=    60.00 Ry     beta= 0.30
     Davidson diagonalization with overlap
     ethr =  5.22E-08,  avg # of iterations =  1.0

     negative rho (up, down):  1.907E-02 0.000E+00

     total cpu time spent up to now is     2607.2 secs

     total energy              =    -536.00593632 Ry
     estimated scf accuracy    <       0.00002817 Ry

     iteration #  8     ecut=    60.00 Ry     beta= 0.30
     Davidson diagonalization with overlap
     ethr =  3.81E-08,  avg # of iterations =  5.0

     negative rho (up, down):  1.905E-02 0.000E+00

     total cpu time spent up to now is     2631.9 secs

     total energy              =    -536.00594104 Ry
     estimated scf accuracy    <       0.00000185 Ry

     iteration #  9     ecut=    60.00 Ry     beta= 0.30
     Davidson diagonalization with overlap
     ethr =  2.50E-09,  avg # of iterations =  6.0

     negative rho (up, down):  1.903E-02 0.000E+00

     total cpu time spent up to now is     2656.4 secs

     total energy              =    -536.00594164 Ry
     estimated scf accuracy    <       0.00000410 Ry

     iteration # 10     ecut=    60.00 Ry     beta= 0.30
     Davidson diagonalization with overlap
     ethr =  2.50E-09,  avg # of iterations =  2.0

     negative rho (up, down):  1.902E-02 0.000E+00

     total cpu time spent up to now is     2682.3 secs

     total energy              =    -536.00594203 Ry
     estimated scf accuracy    <       0.00000298 Ry

     iteration # 11     ecut=    60.00 Ry     beta= 0.30
     Davidson diagonalization with overlap
     ethr =  2.50E-09,  avg # of iterations =  1.0

     negative rho (up, down):  1.902E-02 0.000E+00

     total cpu time spent up to now is     2705.7 secs

     total energy              =    -536.00594108 Ry
     estimated scf accuracy    <       0.00000336 Ry

     iteration # 12     ecut=    60.00 Ry     beta= 0.30
     Davidson diagonalization with overlap
     ethr =  2.50E-09,  avg # of iterations =  5.0

     negative rho (up, down):  1.902E-02 0.000E+00

     total cpu time spent up to now is     2728.5 secs

     total energy              =    -536.00594178 Ry
     estimated scf accuracy    <       0.00000069 Ry

     iteration # 13     ecut=    60.00 Ry     beta= 0.30
     Davidson diagonalization with overlap
     ethr =  9.26E-10,  avg # of iterations =  1.0

     negative rho (up, down):  1.902E-02 0.000E+00

     total cpu time spent up to now is     2751.9 secs

     total energy              =    -536.00594182 Ry
     estimated scf accuracy    <       0.00000052 Ry

     iteration # 14     ecut=    60.00 Ry     beta= 0.30
     Davidson diagonalization with overlap
     ethr =  7.03E-10,  avg # of iterations =  1.0

     negative rho (up, down):  1.902E-02 0.000E+00

     total cpu time spent up to now is     2775.5 secs

     total energy              =    -536.00594175 Ry
     estimated scf accuracy    <       0.00000064 Ry

     iteration # 15     ecut=    60.00 Ry     beta= 0.30
     Davidson diagonalization with overlap
     ethr =  7.03E-10,  avg # of iterations =  1.0

     negative rho (up, down):  1.902E-02 0.000E+00

     total cpu time spent up to now is     2795.3 secs

     total energy              =    -536.00594168 Ry
     estimated scf accuracy    <       0.00000049 Ry

     iteration # 16     ecut=    60.00 Ry     beta= 0.30
     Davidson diagonalization with overlap
     ethr =  6.62E-10,  avg # of iterations =  1.0

     negative rho (up, down):  1.902E-02 0.000E+00

     total cpu time spent up to now is     2818.9 secs

     total energy              =    -536.00594157 Ry
     estimated scf accuracy    <       0.00000024 Ry

     iteration # 17     ecut=    60.00 Ry     beta= 0.30
     Davidson diagonalization with overlap
     ethr =  3.31E-10,  avg # of iterations =  5.0

     negative rho (up, down):  1.902E-02 0.000E+00

     total cpu time spent up to now is     2842.0 secs

     total energy              =    -536.00594166 Ry
     estimated scf accuracy    <       0.00000011 Ry

     iteration # 18     ecut=    60.00 Ry     beta= 0.30
     Davidson diagonalization with overlap
     ethr =  1.49E-10,  avg # of iterations =  4.0

     negative rho (up, down):  1.902E-02 0.000E+00

     total cpu time spent up to now is     2867.0 secs

     total energy              =    -536.00594167 Ry
     estimated scf accuracy    <       0.00000006 Ry

     iteration # 19     ecut=    60.00 Ry     beta= 0.30
     Davidson diagonalization with overlap
     ethr =  7.44E-11,  avg # of iterations =  4.0

     negative rho (up, down):  1.902E-02 0.000E+00

     total cpu time spent up to now is     2891.9 secs

     total energy              =    -536.00594169 Ry
     estimated scf accuracy    <       0.00000004 Ry

     iteration # 20     ecut=    60.00 Ry     beta= 0.30
     Davidson diagonalization with overlap
     ethr =  5.36E-11,  avg # of iterations =  2.0

     negative rho (up, down):  1.902E-02 0.000E+00

     total cpu time spent up to now is     2912.0 secs

     total energy              =    -536.00594173 Ry
     estimated scf accuracy    <       0.00000005 Ry

     iteration # 21     ecut=    60.00 Ry     beta= 0.30
     Davidson diagonalization with overlap
     ethr =  5.36E-11,  avg # of iterations =  5.0

     negative rho (up, down):  1.902E-02 0.000E+00

     total cpu time spent up to now is     2938.9 secs

     total energy              =    -536.00594174 Ry
     estimated scf accuracy    <       0.00000035 Ry

     iteration # 22     ecut=    60.00 Ry     beta= 0.30
     Davidson diagonalization with overlap
     ethr =  5.36E-11,  avg # of iterations =  2.0

     negative rho (up, down):  1.902E-02 0.000E+00

     total cpu time spent up to now is     2962.9 secs

     total energy              =    -536.00594177 Ry
     estimated scf accuracy    <       0.00000030 Ry

     iteration # 23     ecut=    60.00 Ry     beta= 0.30
     Davidson diagonalization with overlap
     ethr =  5.36E-11,  avg # of iterations =  2.0

     negative rho (up, down):  1.902E-02 0.000E+00

     total cpu time spent up to now is     2982.6 secs

     total energy              =    -536.00594179 Ry
     estimated scf accuracy    <       0.00000038 Ry

     iteration # 24     ecut=    60.00 Ry     beta= 0.30
     Davidson diagonalization with overlap
     ethr =  5.36E-11,  avg # of iterations =  1.0

     negative rho (up, down):  1.902E-02 0.000E+00

     total cpu time spent up to now is     3006.0 secs

     total energy              =    -536.00594180 Ry
     estimated scf accuracy    <       0.00000044 Ry

     iteration # 25     ecut=    60.00 Ry     beta= 0.30
     Davidson diagonalization with overlap
     ethr =  5.36E-11,  avg # of iterations =  2.0

     negative rho (up, down):  1.902E-02 0.000E+00

     total cpu time spent up to now is     3030.4 secs

     total energy              =    -536.00594172 Ry
     estimated scf accuracy    <       0.00000045 Ry

     iteration # 26     ecut=    60.00 Ry     beta= 0.30
     Davidson diagonalization with overlap
     ethr =  5.36E-11,  avg # of iterations =  5.0

     negative rho (up, down):  1.902E-02 0.000E+00

     total cpu time spent up to now is     3053.3 secs

     total energy              =    -536.00594170 Ry
     estimated scf accuracy    <       0.00000027 Ry

     iteration # 27     ecut=    60.00 Ry     beta= 0.30
     Davidson diagonalization with overlap
     ethr =  5.36E-11,  avg # of iterations =  4.0

     negative rho (up, down):  1.902E-02 0.000E+00

     total cpu time spent up to now is     3079.0 secs

     total energy              =    -536.00594168 Ry
     estimated scf accuracy    <       0.00000012 Ry

     iteration # 28     ecut=    60.00 Ry     beta= 0.30
     Davidson diagonalization with overlap
     ethr =  5.36E-11,  avg # of iterations =  2.0

     negative rho (up, down):  1.902E-02 0.000E+00

     total cpu time spent up to now is     3104.6 secs

     total energy              =    -536.00594167 Ry
     estimated scf accuracy    <       0.00000005 Ry

     iteration # 29     ecut=    60.00 Ry     beta= 0.30
     Davidson diagonalization with overlap
     ethr =  5.36E-11,  avg # of iterations =  4.0

     negative rho (up, down):  1.902E-02 0.000E+00

     total cpu time spent up to now is     3127.4 secs

     total energy              =    -536.00594170 Ry
     estimated scf accuracy    <       0.00000006 Ry

     iteration # 30     ecut=    60.00 Ry     beta= 0.30
     Davidson diagonalization with overlap
     ethr =  5.36E-11,  avg # of iterations =  1.0

     negative rho (up, down):  1.902E-02 0.000E+00

     total cpu time spent up to now is     3152.0 secs

     total energy              =    -536.00594170 Ry
     estimated scf accuracy    <       0.00000007 Ry

     iteration # 31     ecut=    60.00 Ry     beta= 0.30
     Davidson diagonalization with overlap
     ethr =  5.36E-11,  avg # of iterations =  1.0

     negative rho (up, down):  1.902E-02 0.000E+00

     total cpu time spent up to now is     3174.7 secs

     total energy              =    -536.00594170 Ry
     estimated scf accuracy    <       0.00000008 Ry

     iteration # 32     ecut=    60.00 Ry     beta= 0.30
     Davidson diagonalization with overlap
     ethr =  5.36E-11,  avg # of iterations =  1.0

     negative rho (up, down):  1.902E-02 0.000E+00

     total cpu time spent up to now is     3194.8 secs

     total energy              =    -536.00594169 Ry
     estimated scf accuracy    <       0.00000007 Ry

     iteration # 33     ecut=    60.00 Ry     beta= 0.30
     Davidson diagonalization with overlap
     ethr =  5.36E-11,  avg # of iterations =  3.0

     negative rho (up, down):  1.902E-02 0.000E+00

     total cpu time spent up to now is     3218.8 secs

     total energy              =    -536.00594169 Ry
     estimated scf accuracy    <       0.00000002 Ry

     iteration # 34     ecut=    60.00 Ry     beta= 0.30
     Davidson diagonalization with overlap
     ethr =  3.05E-11,  avg # of iterations =  5.0

     negative rho (up, down):  1.901E-02 0.000E+00

     total cpu time spent up to now is     3242.9 secs

     End of self-consistent calculation

          k = 0.0000 0.0000 0.0000 (162403 PWs)   bands (ev):

   -76.3946 -47.7908 -47.7908 -47.7908 -28.9311 -28.9083 -28.9083 -28.9083
   -28.8993 -28.8993 -15.2967 -14.1746 -14.1746 -14.1746 -14.0837 -14.0837
   -12.4119 -11.9654 -11.9654 -11.9654 -11.8769 -11.8769 -11.8769 -11.5333
   -11.5333 -11.5333 -11.3679 -11.3679 -11.3679 -11.0573 -11.0573 -10.2752
   -10.2752 -10.2752  -6.3367  -6.3367  -6.3367

     highest occupied level (ev):    -6.3367

!    total energy              =    -536.00594168 Ry
     estimated scf accuracy    <          3.5E-09 Ry

     The total energy is the sum of the following terms:
     one-electron contribution =   -2486.48211464 Ry
     hartree contribution      =    1246.34696003 Ry
     xc contribution           =     -93.07731086 Ry
     ewald contribution        =     891.47573515 Ry
     one-center paw contrib.   =     -94.26921137 Ry

     convergence has been achieved in  34 iterations

     negative rho (up, down):  1.901E-02 0.000E+00

     Forces acting on atoms (cartesian axes, Ry/au):

     atom    1 type  2   force =     0.00000000    0.00000000    0.00000000
     atom    2 type  1   force =    -0.02253406    0.00000000   -0.00000000
     atom    3 type  3   force =    -0.00815475    0.00000000    0.00000000
     atom    4 type  1   force =     0.02253406    0.00000000   -0.00000000
     atom    5 type  3   force =     0.00815475    0.00000000    0.00000000
     atom    6 type  1   force =     0.00000000   -0.02253406    0.00000000
     atom    7 type  3   force =     0.00000000   -0.00815475   -0.00000000
     atom    8 type  1   force =     0.00000000    0.02253406   -0.00000000
     atom    9 type  3   force =    -0.00000000    0.00815475   -0.00000000
     atom   10 type  1   force =     0.00000000    0.00000000   -0.02253406
     atom   11 type  3   force =     0.00000000    0.00000000   -0.00815475
     atom   12 type  1   force =     0.00000000    0.00000000    0.02253406
     atom   13 type  3   force =     0.00000000    0.00000000    0.00815475

     Total force =     0.058700     Total SCF correction =     0.000155
     Energy error            =      6.7E-03 Ry
     Gradient error          =      2.3E-02 Ry/Bohr

     number of scf cycles    =   5
     number of bfgs steps    =   3

     energy             old  =    -535.9992298848 Ry
     energy             new  =    -536.0059416841 Ry

     CASE: energy            _new < energy            _old

     new trust radius        =       0.0485852697 bohr
     new conv_thr            =       0.0000000100 Ry


ATOMIC_POSITIONS (angstrom)
Cr               9.1490000000        9.1490000000        9.1490000000
C               11.0745207275        9.1490000000        9.1490000000
O               12.2292243989        9.1490000000        9.1490000000
C                7.2234792725        9.1490000000        9.1490000000
O                6.0687756011        9.1490000000        9.1490000000
C                9.1490000000       11.0745207275        9.1490000000
O                9.1490000000       12.2292243989        9.1490000000
C                9.1490000000        7.2234792725        9.1490000000
O                9.1490000000        6.0687756011        9.1490000000
C                9.1490000000        9.1490000000       11.0745207275
O                9.1490000000        9.1490000000       12.2292243989
C                9.1490000000        9.1490000000        7.2234792725
O                9.1490000000        9.1490000000        6.0687756011



     Writing config-only to output data dir /home/duets/qe_workdirs/cr_co6__mc_dist__+0.06/cr_co6__mc_dist__+0.06.save/ :
     XML data file
     NEW-OLD atomic charge density approx. for the potential

     negative rho (up, down):  1.906E-02 0.000E+00

     total cpu time spent up to now is     3265.0 secs

     Self-consistent Calculation

     iteration #  1     ecut=    60.00 Ry     beta= 0.30
     Davidson diagonalization with overlap
     ethr =  1.00E-06,  avg # of iterations = 15.0

     negative rho (up, down):  1.884E-02 0.000E+00

     total cpu time spent up to now is     3304.7 secs

     total energy              =    -536.01149412 Ry
     estimated scf accuracy    <       0.00662329 Ry

     iteration #  2     ecut=    60.00 Ry     beta= 0.30
     Davidson diagonalization with overlap
     ethr =  8.95E-06,  avg # of iterations =  6.0

     negative rho (up, down):  1.835E-02 0.000E+00

     total cpu time spent up to now is     3329.9 secs

     total energy              =    -536.01141697 Ry
     estimated scf accuracy    <       0.01766358 Ry

     iteration #  3     ecut=    60.00 Ry     beta= 0.30
     Davidson diagonalization with overlap
     ethr =  8.95E-06,  avg # of iterations =  6.0

     negative rho (up, down):  1.837E-02 0.000E+00

     total cpu time spent up to now is     3354.4 secs

     total energy              =    -536.01273162 Ry
     estimated scf accuracy    <       0.00094506 Ry

     iteration #  4     ecut=    60.00 Ry     beta= 0.30
     Davidson diagonalization with overlap
     ethr =  1.28E-06,  avg # of iterations =  4.0

     negative rho (up, down):  1.837E-02 0.000E+00

     total cpu time spent up to now is     3374.8 secs

     total energy              =    -536.01272302 Ry
     estimated scf accuracy    <       0.00034764 Ry

     iteration #  5     ecut=    60.00 Ry     beta= 0.30
     Davidson diagonalization with overlap
     ethr =  4.70E-07,  avg # of iterations =  2.0

     negative rho (up, down):  1.834E-02 0.000E+00

     total cpu time spent up to now is     3398.6 secs

     total energy              =    -536.01274446 Ry
     estimated scf accuracy    <       0.00004446 Ry

     iteration #  6     ecut=    60.00 Ry     beta= 0.30
     Davidson diagonalization with overlap
     ethr =  6.01E-08,  avg # of iterations =  5.0

     negative rho (up, down):  1.831E-02 0.000E+00

     total cpu time spent up to now is     3424.2 secs

     total energy              =    -536.01275423 Ry
     estimated scf accuracy    <       0.00001751 Ry

     iteration #  7     ecut=    60.00 Ry     beta= 0.30
     Davidson diagonalization with overlap
     ethr =  2.37E-08,  avg # of iterations =  6.0

     negative rho (up, down):  1.830E-02 0.000E+00

     total cpu time spent up to now is     3447.8 secs

     total energy              =    -536.01275242 Ry
     estimated scf accuracy    <       0.00002345 Ry

     iteration #  8     ecut=    60.00 Ry     beta= 0.30
     Davidson diagonalization with overlap
     ethr =  2.37E-08,  avg # of iterations =  6.0

     negative rho (up, down):  1.827E-02 0.000E+00

     total cpu time spent up to now is     3474.2 secs

     total energy              =    -536.01275629 Ry
     estimated scf accuracy    <       0.00006965 Ry

     iteration #  9     ecut=    60.00 Ry     beta= 0.30
     Davidson diagonalization with overlap
     ethr =  2.37E-08,  avg # of iterations =  6.0

     negative rho (up, down):  1.826E-02 0.000E+00

     total cpu time spent up to now is     3499.4 secs

     total energy              =    -536.01276012 Ry
     estimated scf accuracy    <       0.00000181 Ry

     iteration # 10     ecut=    60.00 Ry     beta= 0.30
     Davidson diagonalization with overlap
     ethr =  2.45E-09,  avg # of iterations =  6.0

     negative rho (up, down):  1.826E-02 0.000E+00

     total cpu time spent up to now is     3527.4 secs

     total energy              =    -536.01275998 Ry
     estimated scf accuracy    <       0.00000558 Ry

     iteration # 11     ecut=    60.00 Ry     beta= 0.30
     Davidson diagonalization with overlap
     ethr =  2.45E-09,  avg # of iterations =  6.0

     negative rho (up, down):  1.825E-02 0.000E+00

     total cpu time spent up to now is     3550.9 secs

     total energy              =    -536.01276108 Ry
     estimated scf accuracy    <       0.00000077 Ry

     iteration # 12     ecut=    60.00 Ry     beta= 0.30
     Davidson diagonalization with overlap
     ethr =  1.05E-09,  avg # of iterations =  2.0

     negative rho (up, down):  1.825E-02 0.000E+00

     total cpu time spent up to now is     3574.2 secs

     total energy              =    -536.01276082 Ry
     estimated scf accuracy    <       0.00000119 Ry

     iteration # 13     ecut=    60.00 Ry     beta= 0.30
     Davidson diagonalization with overlap
     ethr =  1.05E-09,  avg # of iterations =  3.0

     negative rho (up, down):  1.825E-02 0.000E+00

     total cpu time spent up to now is     3598.8 secs

     total energy              =    -536.01276097 Ry
     estimated scf accuracy    <       0.00000070 Ry

     iteration # 14     ecut=    60.00 Ry     beta= 0.30
     Davidson diagonalization with overlap
     ethr =  9.41E-10,  avg # of iterations =  5.0

     negative rho (up, down):  1.825E-02 0.000E+00

     total cpu time spent up to now is     3619.8 secs

     total energy              =    -536.01276106 Ry
     estimated scf accuracy    <       0.00000037 Ry

     iteration # 15     ecut=    60.00 Ry     beta= 0.30
     Davidson diagonalization with overlap
     ethr =  5.04E-10,  avg # of iterations =  1.0

     negative rho (up, down):  1.825E-02 0.000E+00

     total cpu time spent up to now is     3643.9 secs

     total energy              =    -536.01276110 Ry
     estimated scf accuracy    <       0.00000039 Ry

     iteration # 16     ecut=    60.00 Ry     beta= 0.30
     Davidson diagonalization with overlap
     ethr =  5.04E-10,  avg # of iterations =  1.0

     negative rho (up, down):  1.825E-02 0.000E+00

     total cpu time spent up to now is     3663.3 secs

     total energy              =    -536.01276109 Ry
     estimated scf accuracy    <       0.00000054 Ry

     iteration # 17     ecut=    60.00 Ry     beta= 0.30
     Davidson diagonalization with overlap
     ethr =  5.04E-10,  avg # of iterations =  2.0

     negative rho (up, down):  1.825E-02 0.000E+00

     total cpu time spent up to now is     3686.3 secs

     total energy              =    -536.01276113 Ry
     estimated scf accuracy    <       0.00000052 Ry

     iteration # 18     ecut=    60.00 Ry     beta= 0.30
     Davidson diagonalization with overlap
     ethr =  5.04E-10,  avg # of iterations =  1.0

     negative rho (up, down):  1.825E-02 0.000E+00

     total cpu time spent up to now is     3709.6 secs

     total energy              =    -536.01276114 Ry
     estimated scf accuracy    <       0.00000064 Ry

     iteration # 19     ecut=    60.00 Ry     beta= 0.30
     Davidson diagonalization with overlap
     ethr =  5.04E-10,  avg # of iterations =  6.0

     negative rho (up, down):  1.824E-02 0.000E+00

     total cpu time spent up to now is     3732.0 secs

     total energy              =    -536.01276116 Ry
     estimated scf accuracy    <       0.00000152 Ry

     iteration # 20     ecut=    60.00 Ry     beta= 0.30
     Davidson diagonalization with overlap
     ethr =  5.04E-10,  avg # of iterations =  2.0

     negative rho (up, down):  1.824E-02 0.000E+00

     total cpu time spent up to now is     3756.1 secs

     total energy              =    -536.01276097 Ry
     estimated scf accuracy    <       0.00000166 Ry

     iteration # 21     ecut=    60.00 Ry     beta= 0.30
     Davidson diagonalization with overlap
     ethr =  5.04E-10,  avg # of iterations =  2.0

     negative rho (up, down):  1.824E-02 0.000E+00

     total cpu time spent up to now is     3780.4 secs

     total energy              =    -536.01276115 Ry
     estimated scf accuracy    <       0.00000112 Ry

     iteration # 22     ecut=    60.00 Ry     beta= 0.30
     Davidson diagonalization with overlap
     ethr =  5.04E-10,  avg # of iterations =  2.0

     negative rho (up, down):  1.824E-02 0.000E+00

     total cpu time spent up to now is     3800.2 secs

     total energy              =    -536.01276090 Ry
     estimated scf accuracy    <       0.00000167 Ry

     iteration # 23     ecut=    60.00 Ry     beta= 0.30
     Davidson diagonalization with overlap
     ethr =  5.04E-10,  avg # of iterations =  3.0

     negative rho (up, down):  1.824E-02 0.000E+00

     total cpu time spent up to now is     3825.0 secs

     total energy              =    -536.01276096 Ry
     estimated scf accuracy    <       0.00000075 Ry

     iteration # 24     ecut=    60.00 Ry     beta= 0.30
     Davidson diagonalization with overlap
     ethr =  5.04E-10,  avg # of iterations =  1.0

     negative rho (up, down):  1.824E-02 0.000E+00

     total cpu time spent up to now is     3844.3 secs

     total energy              =    -536.01276093 Ry
     estimated scf accuracy    <       0.00000060 Ry

     iteration # 25     ecut=    60.00 Ry     beta= 0.30
     Davidson diagonalization with overlap
     ethr =  5.04E-10,  avg # of iterations =  2.0

     negative rho (up, down):  1.824E-02 0.000E+00

     total cpu time spent up to now is     3867.7 secs

     total energy              =    -536.01276091 Ry
     estimated scf accuracy    <       0.00000040 Ry

     iteration # 26     ecut=    60.00 Ry     beta= 0.30
     Davidson diagonalization with overlap
     ethr =  5.04E-10,  avg # of iterations =  5.0

     negative rho (up, down):  1.824E-02 0.000E+00

     total cpu time spent up to now is     3892.5 secs

     total energy              =    -536.01276093 Ry
     estimated scf accuracy    <       0.00000004 Ry

     iteration # 27     ecut=    60.00 Ry     beta= 0.30
     Davidson diagonalization with overlap
     ethr =  5.24E-11,  avg # of iterations =  5.0

     negative rho (up, down):  1.824E-02 0.000E+00

     total cpu time spent up to now is     3915.1 secs

     total energy              =    -536.01276093 Ry
     estimated scf accuracy    <       0.00000004 Ry

     iteration # 28     ecut=    60.00 Ry     beta= 0.30
     Davidson diagonalization with overlap
     ethr =  4.78E-11,  avg # of iterations =  7.0

     negative rho (up, down):  1.824E-02 0.000E+00

     total cpu time spent up to now is     3942.9 secs

     total energy              =    -536.01276098 Ry
     estimated scf accuracy    <       0.00000069 Ry

     iteration # 29     ecut=    60.00 Ry     beta= 0.30
     Davidson diagonalization with overlap
     ethr =  4.78E-11,  avg # of iterations =  4.0

     negative rho (up, down):  1.824E-02 0.000E+00

     total cpu time spent up to now is     3967.7 secs

     total energy              =    -536.01276098 Ry
     estimated scf accuracy    <       0.00000050 Ry

     iteration # 30     ecut=    60.00 Ry     beta= 0.30
     Davidson diagonalization with overlap
     ethr =  4.78E-11,  avg # of iterations =  1.0

     negative rho (up, down):  1.824E-02 0.000E+00

     total cpu time spent up to now is     3987.2 secs

     total energy              =    -536.01276095 Ry
     estimated scf accuracy    <       0.00000048 Ry

     iteration # 31     ecut=    60.00 Ry     beta= 0.30
     Davidson diagonalization with overlap
     ethr =  4.78E-11,  avg # of iterations =  6.0

     negative rho (up, down):  1.824E-02 0.000E+00

     total cpu time spent up to now is     4012.3 secs

     total energy              =    -536.01276095 Ry
     estimated scf accuracy    <       0.00000018 Ry

     iteration # 32     ecut=    60.00 Ry     beta= 0.30
     Davidson diagonalization with overlap
     ethr =  4.78E-11,  avg # of iterations =  1.0

     negative rho (up, down):  1.824E-02 0.000E+00

     total cpu time spent up to now is     4035.7 secs

     total energy              =    -536.01276094 Ry
     estimated scf accuracy    <       0.00000018 Ry

     iteration # 33     ecut=    60.00 Ry     beta= 0.30
     Davidson diagonalization with overlap
     ethr =  4.78E-11,  avg # of iterations =  5.0

     negative rho (up, down):  1.824E-02 0.000E+00

     total cpu time spent up to now is     4056.9 secs

     total energy              =    -536.01276093 Ry
     estimated scf accuracy    <       0.00000006 Ry

     iteration # 34     ecut=    60.00 Ry     beta= 0.30
     Davidson diagonalization with overlap
     ethr =  4.78E-11,  avg # of iterations =  5.0

     negative rho (up, down):  1.825E-02 0.000E+00

     total cpu time spent up to now is     4082.1 secs

     End of self-consistent calculation

          k = 0.0000 0.0000 0.0000 (162403 PWs)   bands (ev):

   -76.4015 -47.8135 -47.8135 -47.8135 -28.9348 -28.9095 -28.9095 -28.9095
   -28.8995 -28.8995 -15.4048 -14.1830 -14.1830 -14.1830 -14.0931 -14.0931
   -12.4499 -12.0083 -12.0083 -12.0083 -11.9073 -11.9073 -11.9073 -11.5347
   -11.5347 -11.5347 -11.3577 -11.3577 -11.3577 -11.1635 -11.1635 -10.2701
   -10.2701 -10.2701  -6.4409  -6.4409  -6.4409

     highest occupied level (ev):    -6.4409

!    total energy              =    -536.01276095 Ry
     estimated scf accuracy    <          3.3E-09 Ry

     The total energy is the sum of the following terms:
     one-electron contribution =   -2502.20169453 Ry
     hartree contribution      =    1254.19383243 Ry
     xc contribution           =     -93.16588554 Ry
     ewald contribution        =     899.42978288 Ry
     one-center paw contrib.   =     -94.26879619 Ry

     convergence has been achieved in  34 iterations

     negative rho (up, down):  1.825E-02 0.000E+00

     Forces acting on atoms (cartesian axes, Ry/au):

     atom    1 type  2   force =     0.00000000    0.00000000    0.00000000
     atom    2 type  1   force =    -0.01171918    0.00000000    0.00000000
     atom    3 type  3   force =    -0.00467782    0.00000000    0.00000000
     atom    4 type  1   force =     0.01171918    0.00000000    0.00000000
     atom    5 type  3   force =     0.00467782    0.00000000    0.00000000
     atom    6 type  1   force =     0.00000000   -0.01171918    0.00000000
     atom    7 type  3   force =     0.00000000   -0.00467782   -0.00000000
     atom    8 type  1   force =     0.00000000    0.01171918    0.00000000
     atom    9 type  3   force =     0.00000000    0.00467782   -0.00000000
     atom   10 type  1   force =     0.00000000    0.00000000   -0.01171918
     atom   11 type  3   force =     0.00000000    0.00000000   -0.00467782
     atom   12 type  1   force =     0.00000000    0.00000000    0.01171918
     atom   13 type  3   force =     0.00000000    0.00000000    0.00467782

     Total force =     0.030908     Total SCF correction =     0.000123
     Energy error            =      6.8E-03 Ry
     Gradient error          =      1.2E-02 Ry/Bohr

     number of scf cycles    =   6
     number of bfgs steps    =   4

     energy             old  =    -536.0059416841 Ry
     energy             new  =    -536.0127609495 Ry

     CASE: energy            _new < energy            _old

     new trust radius        =       0.0560259394 bohr
     new conv_thr            =       0.0000000100 Ry


ATOMIC_POSITIONS (angstrom)
Cr               9.1490000000        9.1490000000        9.1490000000
C               11.0455425578        9.1490000000        9.1490000000
O               12.1995767486        9.1490000000        9.1490000000
C                7.2524574422        9.1490000000        9.1490000000
O                6.0984232514        9.1490000000        9.1490000000
C                9.1490000000       11.0455425578        9.1490000000
O                9.1490000000       12.1995767486        9.1490000000
C                9.1490000000        7.2524574422        9.1490000000
O                9.1490000000        6.0984232514        9.1490000000
C                9.1490000000        9.1490000000       11.0455425578
O                9.1490000000        9.1490000000       12.1995767486
C                9.1490000000        9.1490000000        7.2524574422
O                9.1490000000        9.1490000000        6.0984232514



     Writing config-only to output data dir /home/duets/qe_workdirs/cr_co6__mc_dist__+0.06/cr_co6__mc_dist__+0.06.save/ :
     XML data file
     NEW-OLD atomic charge density approx. for the potential

     negative rho (up, down):  1.831E-02 0.000E+00

     total cpu time spent up to now is     4106.7 secs

     Self-consistent Calculation

     iteration #  1     ecut=    60.00 Ry     beta= 0.30
     Davidson diagonalization with overlap
     ethr =  1.00E-06,  avg # of iterations = 16.0

     negative rho (up, down):  1.809E-02 0.000E+00

     total cpu time spent up to now is     4147.8 secs

     total energy              =    -536.01320240 Ry
     estimated scf accuracy    <       0.00944245 Ry

     iteration #  2     ecut=    60.00 Ry     beta= 0.30
     Davidson diagonalization with overlap
     ethr =  1.28E-05,  avg # of iterations =  6.0

     negative rho (up, down):  1.755E-02 0.000E+00

     total cpu time spent up to now is     4172.9 secs

     total energy              =    -536.01326894 Ry
     estimated scf accuracy    <       0.02449931 Ry

     iteration #  3     ecut=    60.00 Ry     beta= 0.30
     Davidson diagonalization with overlap
     ethr =  1.28E-05,  avg # of iterations =  6.0

     negative rho (up, down):  1.757E-02 0.000E+00

     total cpu time spent up to now is     4193.6 secs

     total energy              =    -536.01512294 Ry
     estimated scf accuracy    <       0.00125261 Ry

     iteration #  4     ecut=    60.00 Ry     beta= 0.30
     Davidson diagonalization with overlap
     ethr =  1.69E-06,  avg # of iterations =  4.0

     negative rho (up, down):  1.759E-02 0.000E+00

     total cpu time spent up to now is     4217.5 secs

     total energy              =    -536.01513752 Ry
     estimated scf accuracy    <       0.00043959 Ry

     iteration #  5     ecut=    60.00 Ry     beta= 0.30
     Davidson diagonalization with overlap
     ethr =  5.94E-07,  avg # of iterations =  2.0

     negative rho (up, down):  1.755E-02 0.000E+00

     total cpu time spent up to now is     4236.9 secs

     total energy              =    -536.01516455 Ry
     estimated scf accuracy    <       0.00008267 Ry

     iteration #  6     ecut=    60.00 Ry     beta= 0.30
     Davidson diagonalization with overlap
     ethr =  1.12E-07,  avg # of iterations =  4.0

     negative rho (up, down):  1.753E-02 0.000E+00

     total cpu time spent up to now is     4261.9 secs

     total energy              =    -536.01517071 Ry
     estimated scf accuracy    <       0.00002032 Ry

     iteration #  7     ecut=    60.00 Ry     beta= 0.30
     Davidson diagonalization with overlap
     ethr =  2.75E-08,  avg # of iterations =  4.0

     negative rho (up, down):  1.752E-02 0.000E+00

     total cpu time spent up to now is     4289.4 secs

     total energy              =    -536.01517614 Ry
     estimated scf accuracy    <       0.00001638 Ry

     iteration #  8     ecut=    60.00 Ry     beta= 0.30
     Davidson diagonalization with overlap
     ethr =  2.21E-08,  avg # of iterations =  6.0

     negative rho (up, down):  1.749E-02 0.000E+00

     total cpu time spent up to now is     4311.1 secs

     total energy              =    -536.01517390 Ry
     estimated scf accuracy    <       0.00003571 Ry

     iteration #  9     ecut=    60.00 Ry     beta= 0.30
     Davidson diagonalization with overlap
     ethr =  2.21E-08,  avg # of iterations =  6.0

     negative rho (up, down):  1.749E-02 0.000E+00

     total cpu time spent up to now is     4336.9 secs

     total energy              =    -536.01518165 Ry
     estimated scf accuracy    <       0.00000941 Ry

     iteration # 10     ecut=    60.00 Ry     beta= 0.30
     Davidson diagonalization with overlap
     ethr =  1.27E-08,  avg # of iterations =  1.0

     negative rho (up, down):  1.749E-02 0.000E+00

     total cpu time spent up to now is     4360.9 secs

     total energy              =    -536.01517702 Ry
     estimated scf accuracy    <       0.00000885 Ry

     iteration # 11     ecut=    60.00 Ry     beta= 0.30
     Davidson diagonalization with overlap
     ethr =  1.20E-08,  avg # of iterations =  3.0

     negative rho (up, down):  1.748E-02 0.000E+00

     total cpu time spent up to now is     4382.7 secs

     total energy              =    -536.01517957 Ry
     estimated scf accuracy    <       0.00000097 Ry

     iteration # 12     ecut=    60.00 Ry     beta= 0.30
     Davidson diagonalization with overlap
     ethr =  1.32E-09,  avg # of iterations =  5.0

     negative rho (up, down):  1.748E-02 0.000E+00

     total cpu time spent up to now is     4408.4 secs

     total energy              =    -536.01517970 Ry
     estimated scf accuracy    <       0.00000073 Ry

     iteration # 13     ecut=    60.00 Ry     beta= 0.30
     Davidson diagonalization with overlap
     ethr =  9.87E-10,  avg # of iterations =  1.0

     negative rho (up, down):  1.748E-02 0.000E+00

     total cpu time spent up to now is     4432.0 secs

     total energy              =    -536.01517973 Ry
     estimated scf accuracy    <       0.00000058 Ry

     iteration # 14     ecut=    60.00 Ry     beta= 0.30
     Davidson diagonalization with overlap
     ethr =  7.82E-10,  avg # of iterations =  1.0

     negative rho (up, down):  1.747E-02 0.000E+00

     total cpu time spent up to now is     4451.1 secs

     total energy              =    -536.01517972 Ry
     estimated scf accuracy    <       0.00000063 Ry

     iteration # 15     ecut=    60.00 Ry     beta= 0.30
     Davidson diagonalization with overlap
     ethr =  7.82E-10,  avg # of iterations =  1.0

     negative rho (up, down):  1.747E-02 0.000E+00

     total cpu time spent up to now is     4473.9 secs

     total energy              =    -536.01517976 Ry
     estimated scf accuracy    <       0.00000056 Ry

     iteration # 16     ecut=    60.00 Ry     beta= 0.30
     Davidson diagonalization with overlap
     ethr =  7.56E-10,  avg # of iterations =  1.0

     negative rho (up, down):  1.747E-02 0.000E+00

     total cpu time spent up to now is     4496.6 secs

     total energy              =    -536.01517960 Ry
     estimated scf accuracy    <       0.00000068 Ry

     iteration # 17     ecut=    60.00 Ry     beta= 0.30
     Davidson diagonalization with overlap
     ethr =  7.56E-10,  avg # of iterations =  2.0

     negative rho (up, down):  1.747E-02 0.000E+00

     total cpu time spent up to now is     4517.1 secs

     total energy              =    -536.01517957 Ry
     estimated scf accuracy    <       0.00000026 Ry

     iteration # 18     ecut=    60.00 Ry     beta= 0.30
     Davidson diagonalization with overlap
     ethr =  3.50E-10,  avg # of iterations =  4.0

     negative rho (up, down):  1.747E-02 0.000E+00

     total cpu time spent up to now is     4542.7 secs

     total energy              =    -536.01517963 Ry
     estimated scf accuracy    <       0.00000011 Ry

     iteration # 19     ecut=    60.00 Ry     beta= 0.30
     Davidson diagonalization with overlap
     ethr =  1.49E-10,  avg # of iterations =  1.0

     negative rho (up, down):  1.747E-02 0.000E+00

     total cpu time spent up to now is     4566.4 secs

     total energy              =    -536.01517961 Ry
     estimated scf accuracy    <       0.00000012 Ry

     iteration # 20     ecut=    60.00 Ry     beta= 0.30
     Davidson diagonalization with overlap
     ethr =  1.49E-10,  avg # of iterations =  3.0

     negative rho (up, down):  1.747E-02 0.000E+00

     total cpu time spent up to now is     4587.6 secs

     total energy              =    -536.01517964 Ry
     estimated scf accuracy    <       0.00000011 Ry

     iteration # 21     ecut=    60.00 Ry     beta= 0.30
     Davidson diagonalization with overlap
     ethr =  1.42E-10,  avg # of iterations =  1.0

     negative rho (up, down):  1.747E-02 0.000E+00

     total cpu time spent up to now is     4611.0 secs

     total energy              =    -536.01517962 Ry
     estimated scf accuracy    <       0.00000011 Ry

     iteration # 22     ecut=    60.00 Ry     beta= 0.30
     Davidson diagonalization with overlap
     ethr =  1.42E-10,  avg # of iterations =  1.0

     negative rho (up, down):  1.747E-02 0.000E+00

     total cpu time spent up to now is     4630.1 secs

     total energy              =    -536.01517961 Ry
     estimated scf accuracy    <       0.00000007 Ry

     iteration # 23     ecut=    60.00 Ry     beta= 0.30
     Davidson diagonalization with overlap
     ethr =  9.63E-11,  avg # of iterations =  4.0

     negative rho (up, down):  1.747E-02 0.000E+00

     total cpu time spent up to now is     4655.0 secs

     total energy              =    -536.01517962 Ry
     estimated scf accuracy    <       0.00000004 Ry

     iteration # 24     ecut=    60.00 Ry     beta= 0.30
     Davidson diagonalization with overlap
     ethr =  5.26E-11,  avg # of iterations =  4.0

     negative rho (up, down):  1.747E-02 0.000E+00

     total cpu time spent up to now is     4679.2 secs

     total energy              =    -536.01517962 Ry
     estimated scf accuracy    <       0.00000001 Ry

     iteration # 25     ecut=    60.00 Ry     beta= 0.30
     Davidson diagonalization with overlap
     ethr =  1.37E-11,  avg # of iterations =  7.0

     negative rho (up, down):  1.747E-02 0.000E+00

     total cpu time spent up to now is     4704.2 secs

     total energy              =    -536.01517966 Ry
     estimated scf accuracy    <       0.00000015 Ry

     iteration # 26     ecut=    60.00 Ry     beta= 0.30
     Davidson diagonalization with overlap
     ethr =  1.37E-11,  avg # of iterations =  4.0

     negative rho (up, down):  1.747E-02 0.000E+00

     total cpu time spent up to now is     4729.9 secs

     total energy              =    -536.01517962 Ry
     estimated scf accuracy    <       0.00000023 Ry

     iteration # 27     ecut=    60.00 Ry     beta= 0.30
     Davidson diagonalization with overlap
     ethr =  1.37E-11,  avg # of iterations =  6.0

     negative rho (up, down):  1.747E-02 0.000E+00

     total cpu time spent up to now is     4757.0 secs

     total energy              =    -536.01517961 Ry
     estimated scf accuracy    <       0.00000005 Ry

     iteration # 28     ecut=    60.00 Ry     beta= 0.30
     Davidson diagonalization with overlap
     ethr =  1.37E-11,  avg # of iterations =  5.0

     negative rho (up, down):  1.747E-02 0.000E+00

     total cpu time spent up to now is     4783.8 secs

     End of self-consistent calculation

          k = 0.0000 0.0000 0.0000 (162403 PWs)   bands (ev):

   -76.4079 -47.8406 -47.8406 -47.8406 -28.9418 -28.9131 -28.9131 -28.9131
   -28.9018 -28.9018 -15.5354 -14.1932 -14.1932 -14.1932 -14.1066 -14.1066
   -12.4887 -12.0645 -12.0645 -12.0645 -11.9448 -11.9448 -11.9448 -11.5379
   -11.5379 -11.5379 -11.3464 -11.3464 -11.3464 -11.2902 -11.2902 -10.2590
   -10.2590 -10.2590  -6.5637  -6.5637  -6.5637

     highest occupied level (ev):    -6.5637

!    total energy              =    -536.01517962 Ry
     estimated scf accuracy    <          2.6E-09 Ry

     The total energy is the sum of the following terms:
     one-electron contribution =   -2520.71151498 Ry
     hartree contribution      =    1263.43515768 Ry
     xc contribution           =     -93.27609435 Ry
     ewald contribution        =     908.80576817 Ry
     one-center paw contrib.   =     -94.26849614 Ry

     convergence has been achieved in  28 iterations

     negative rho (up, down):  1.747E-02 0.000E+00

     Forces acting on atoms (cartesian axes, Ry/au):

     atom    1 type  2   force =     0.00000000    0.00000000    0.00000000
     atom    2 type  1   force =     0.00235991   -0.00000000   -0.00000000
     atom    3 type  3   force =    -0.00000685   -0.00000000    0.00000000
     atom    4 type  1   force =    -0.00235991   -0.00000000   -0.00000000
     atom    5 type  3   force =     0.00000685   -0.00000000    0.00000000
     atom    6 type  1   force =     0.00000000    0.00235991    0.00000000
     atom    7 type  3   force =     0.00000000   -0.00000685   -0.00000000
     atom    8 type  1   force =     0.00000000   -0.00235991    0.00000000
     atom    9 type  3   force =     0.00000000    0.00000685   -0.00000000
     atom   10 type  1   force =     0.00000000    0.00000000    0.00235991
     atom   11 type  3   force =     0.00000000    0.00000000   -0.00000685
     atom   12 type  1   force =     0.00000000    0.00000000   -0.00235991
     atom   13 type  3   force =     0.00000000    0.00000000    0.00000685

     Total force =     0.005781     Total SCF correction =     0.000079
     Energy error            =      2.4E-03 Ry
     Gradient error          =      2.4E-03 Ry/Bohr

     number of scf cycles    =   7
     number of bfgs steps    =   5

     energy             old  =    -536.0127609495 Ry
     energy             new  =    -536.0151796207 Ry

     CASE: energy            _new < energy            _old

     new trust radius        =       0.0069016129 bohr
     new conv_thr            =       0.0000000024 Ry


ATOMIC_POSITIONS (angstrom)
Cr               9.1490000000        9.1490000000        9.1490000000
C               11.0491947340        9.1490000000        9.1490000000
O               12.2031655726        9.1490000000        9.1490000000
C                7.2488052660        9.1490000000        9.1490000000
O                6.0948344274        9.1490000000        9.1490000000
C                9.1490000000       11.0491947340        9.1490000000
O                9.1490000000       12.2031655726        9.1490000000
C                9.1490000000        7.2488052660        9.1490000000
O                9.1490000000        6.0948344274        9.1490000000
C                9.1490000000        9.1490000000       11.0491947340
O                9.1490000000        9.1490000000       12.2031655726
C                9.1490000000        9.1490000000        7.2488052660
O                9.1490000000        9.1490000000        6.0948344274



     Writing config-only to output data dir /home/duets/qe_workdirs/cr_co6__mc_dist__+0.06/cr_co6__mc_dist__+0.06.save/ :
     XML data file
     NEW-OLD atomic charge density approx. for the potential

     negative rho (up, down):  1.745E-02 0.000E+00

     total cpu time spent up to now is     4805.1 secs

     Self-consistent Calculation

     iteration #  1     ecut=    60.00 Ry     beta= 0.30
     Davidson diagonalization with overlap
     ethr =  1.00E-06,  avg # of iterations =  8.0

     negative rho (up, down):  1.749E-02 0.000E+00

     total cpu time spent up to now is     4835.8 secs

     total energy              =    -536.01517755 Ry
     estimated scf accuracy    <       0.00008485 Ry

     iteration #  2     ecut=    60.00 Ry     beta= 0.30
     Davidson diagonalization with overlap
     ethr =  1.15E-07,  avg # of iterations =  6.0

     negative rho (up, down):  1.752E-02 0.000E+00

     total cpu time spent up to now is     4863.5 secs

     total energy              =    -536.01522353 Ry
     estimated scf accuracy    <       0.00005781 Ry

     iteration #  3     ecut=    60.00 Ry     beta= 0.30
     Davidson diagonalization with overlap
     ethr =  7.81E-08,  avg # of iterations =  2.0

     negative rho (up, down):  1.753E-02 0.000E+00

     total cpu time spent up to now is     4883.6 secs

     total energy              =    -536.01521475 Ry
     estimated scf accuracy    <       0.00002358 Ry

     iteration #  4     ecut=    60.00 Ry     beta= 0.30
     Davidson diagonalization with overlap
     ethr =  3.19E-08,  avg # of iterations =  5.0

     negative rho (up, down):  1.755E-02 0.000E+00

     total cpu time spent up to now is     4910.6 secs

     total energy              =    -536.01526360 Ry
     estimated scf accuracy    <       0.00004526 Ry

     iteration #  5     ecut=    60.00 Ry     beta= 0.30
     Davidson diagonalization with overlap
     ethr =  3.19E-08,  avg # of iterations =  6.0

     negative rho (up, down):  1.759E-02 0.000E+00

     total cpu time spent up to now is     4937.9 secs

     total energy              =    -536.01520025 Ry
     estimated scf accuracy    <       0.00040972 Ry

     iteration #  6     ecut=    60.00 Ry     beta= 0.30
     Davidson diagonalization with overlap
     ethr =  3.19E-08,  avg # of iterations =  6.0

     negative rho (up, down):  1.760E-02 0.000E+00

     total cpu time spent up to now is     4964.9 secs

     total energy              =    -536.01521702 Ry
     estimated scf accuracy    <       0.00003897 Ry

     iteration #  7     ecut=    60.00 Ry     beta= 0.30
     Davidson diagonalization with overlap
     ethr =  3.19E-08,  avg # of iterations =  6.0

     negative rho (up, down):  1.758E-02 0.000E+00

     total cpu time spent up to now is     4986.8 secs

     total energy              =    -536.01522412 Ry
     estimated scf accuracy    <       0.00000306 Ry

     iteration #  8     ecut=    60.00 Ry     beta= 0.30
     Davidson diagonalization with overlap
     ethr =  4.14E-09,  avg # of iterations =  4.0

     negative rho (up, down):  1.757E-02 0.000E+00

     total cpu time spent up to now is     5012.1 secs

     total energy              =    -536.01522396 Ry
     estimated scf accuracy    <       0.00000262 Ry

     iteration #  9     ecut=    60.00 Ry     beta= 0.30
     Davidson diagonalization with overlap
     ethr =  3.54E-09,  avg # of iterations =  5.0

     negative rho (up, down):  1.757E-02 0.000E+00

     total cpu time spent up to now is     5036.6 secs

     total energy              =    -536.01522444 Ry
     estimated scf accuracy    <       0.00000060 Ry

     iteration # 10     ecut=    60.00 Ry     beta= 0.30
     Davidson diagonalization with overlap
     ethr =  8.13E-10,  avg # of iterations =  1.0

     negative rho (up, down):  1.757E-02 0.000E+00

     total cpu time spent up to now is     5056.6 secs

     total energy              =    -536.01522448 Ry
     estimated scf accuracy    <       0.00000065 Ry

     iteration # 11     ecut=    60.00 Ry     beta= 0.30
     Davidson diagonalization with overlap
     ethr =  8.13E-10,  avg # of iterations =  1.0

     negative rho (up, down):  1.757E-02 0.000E+00

     total cpu time spent up to now is     5079.8 secs

     total energy              =    -536.01522436 Ry
     estimated scf accuracy    <       0.00000064 Ry

     iteration # 12     ecut=    60.00 Ry     beta= 0.30
     Davidson diagonalization with overlap
     ethr =  8.13E-10,  avg # of iterations =  2.0

     negative rho (up, down):  1.757E-02 0.000E+00

     total cpu time spent up to now is     5099.4 secs

     total energy              =    -536.01522441 Ry
     estimated scf accuracy    <       0.00000039 Ry

     iteration # 13     ecut=    60.00 Ry     beta= 0.30
     Davidson diagonalization with overlap
     ethr =  5.28E-10,  avg # of iterations =  5.0

     negative rho (up, down):  1.757E-02 0.000E+00

     total cpu time spent up to now is     5126.4 secs

     total energy              =    -536.01522434 Ry
     estimated scf accuracy    <       0.00000141 Ry

     iteration # 14     ecut=    60.00 Ry     beta= 0.30
     Davidson diagonalization with overlap
     ethr =  5.28E-10,  avg # of iterations =  3.0

     negative rho (up, down):  1.757E-02 0.000E+00

     total cpu time spent up to now is     5150.1 secs

     total energy              =    -536.01522433 Ry
     estimated scf accuracy    <       0.00000062 Ry

     iteration # 15     ecut=    60.00 Ry     beta= 0.30
     Davidson diagonalization with overlap
     ethr =  5.28E-10,  avg # of iterations =  5.0

     negative rho (up, down):  1.757E-02 0.000E+00

     total cpu time spent up to now is     5175.6 secs

     total energy              =    -536.01522440 Ry
     estimated scf accuracy    <       0.00000008 Ry

     iteration # 16     ecut=    60.00 Ry     beta= 0.30
     Davidson diagonalization with overlap
     ethr =  1.04E-10,  avg # of iterations =  4.0

     negative rho (up, down):  1.757E-02 0.000E+00

     total cpu time spent up to now is     5197.4 secs

     total energy              =    -536.01522442 Ry
     estimated scf accuracy    <       0.00000008 Ry

     iteration # 17     ecut=    60.00 Ry     beta= 0.30
     Davidson diagonalization with overlap
     ethr =  1.04E-10,  avg # of iterations =  1.0

     negative rho (up, down):  1.757E-02 0.000E+00

     total cpu time spent up to now is     5220.4 secs

     total energy              =    -536.01522443 Ry
     estimated scf accuracy    <       0.00000011 Ry

     iteration # 18     ecut=    60.00 Ry     beta= 0.30
     Davidson diagonalization with overlap
     ethr =  1.04E-10,  avg # of iterations =  1.0

     negative rho (up, down):  1.757E-02 0.000E+00

     total cpu time spent up to now is     5239.8 secs

     total energy              =    -536.01522444 Ry
     estimated scf accuracy    <       0.00000015 Ry

     iteration # 19     ecut=    60.00 Ry     beta= 0.30
     Davidson diagonalization with overlap
     ethr =  1.04E-10,  avg # of iterations =  2.0

     negative rho (up, down):  1.757E-02 0.000E+00

     total cpu time spent up to now is     5263.5 secs

     total energy              =    -536.01522432 Ry
     estimated scf accuracy    <       0.00000016 Ry

     iteration # 20     ecut=    60.00 Ry     beta= 0.30
     Davidson diagonalization with overlap
     ethr =  1.04E-10,  avg # of iterations =  6.0

     negative rho (up, down):  1.757E-02 0.000E+00

     total cpu time spent up to now is     5291.8 secs

     total energy              =    -536.01522446 Ry
     estimated scf accuracy    <       0.00000067 Ry

     iteration # 21     ecut=    60.00 Ry     beta= 0.30
     Davidson diagonalization with overlap
     ethr =  1.04E-10,  avg # of iterations =  1.0

     negative rho (up, down):  1.757E-02 0.000E+00

     total cpu time spent up to now is     5311.8 secs

     total energy              =    -536.01522432 Ry
     estimated scf accuracy    <       0.00000057 Ry

     iteration # 22     ecut=    60.00 Ry     beta= 0.30
     Davidson diagonalization with overlap
     ethr =  1.04E-10,  avg # of iterations =  6.0

     negative rho (up, down):  1.757E-02 0.000E+00

     total cpu time spent up to now is     5339.4 secs

     total energy              =    -536.01522440 Ry
     estimated scf accuracy    <          8.9E-09 Ry

     iteration # 23     ecut=    60.00 Ry     beta= 0.30
     Davidson diagonalization with overlap
     ethr =  1.21E-11,  avg # of iterations =  4.0

     negative rho (up, down):  1.757E-02 0.000E+00

     total cpu time spent up to now is     5364.9 secs

     total energy              =    -536.01522440 Ry
     estimated scf accuracy    <          7.9E-09 Ry

     iteration # 24     ecut=    60.00 Ry     beta= 0.30
     Davidson diagonalization with overlap
     ethr =  1.07E-11,  avg # of iterations =  5.0

     negative rho (up, down):  1.757E-02 0.000E+00

     total cpu time spent up to now is     5391.6 secs

     total energy              =    -536.01522440 Ry
     estimated scf accuracy    <       0.00000002 Ry

     iteration # 25     ecut=    60.00 Ry     beta= 0.30
     Davidson diagonalization with overlap
     ethr =  1.07E-11,  avg # of iterations =  2.0

     negative rho (up, down):  1.757E-02 0.000E+00

     total cpu time spent up to now is     5411.9 secs

     total energy              =    -536.01522440 Ry
     estimated scf accuracy    <       0.00000001 Ry

     iteration # 26     ecut=    60.00 Ry     beta= 0.30
     Davidson diagonalization with overlap
     ethr =  1.07E-11,  avg # of iterations =  5.0

     negative rho (up, down):  1.757E-02 0.000E+00

     total cpu time spent up to now is     5436.9 secs

     total energy              =    -536.01522440 Ry
     estimated scf accuracy    <          3.2E-09 Ry

     iteration # 27     ecut=    60.00 Ry     beta= 0.30
     Davidson diagonalization with overlap
     ethr =  4.30E-12,  avg # of iterations =  4.0

     negative rho (up, down):  1.757E-02 0.000E+00

     total cpu time spent up to now is     5461.8 secs

     End of self-consistent calculation

          k = 0.0000 0.0000 0.0000 (162403 PWs)   bands (ev):

   -76.4056 -47.8355 -47.8355 -47.8355 -28.9426 -28.9144 -28.9144 -28.9144
   -28.9033 -28.9033 -15.5173 -14.1912 -14.1912 -14.1912 -14.1039 -14.1039
   -12.4840 -12.0578 -12.0578 -12.0578 -11.9406 -11.9406 -11.9406 -11.5383
   -11.5383 -11.5383 -11.3488 -11.3488 -11.3488 -11.2732 -11.2732 -10.2604
   -10.2604 -10.2604  -6.5466  -6.5466  -6.5466

     highest occupied level (ev):    -6.5466

!    total energy              =    -536.01522440 Ry
     estimated scf accuracy    <          1.2E-09 Ry

     The total energy is the sum of the following terms:
     one-electron contribution =   -2518.42851930 Ry
     hartree contribution      =    1262.29581749 Ry
     xc contribution           =     -93.26348696 Ry
     ewald contribution        =     907.64945818 Ry
     one-center paw contrib.   =     -94.26849380 Ry

     convergence has been achieved in  27 iterations

     negative rho (up, down):  1.757E-02 0.000E+00

     Forces acting on atoms (cartesian axes, Ry/au):

     atom    1 type  2   force =     0.00000000    0.00000000    0.00000000
     atom    2 type  1   force =    -0.00020071    0.00000000    0.00000000
     atom    3 type  3   force =     0.00002490   -0.00000000    0.00000000
     atom    4 type  1   force =     0.00020071    0.00000000   -0.00000000
     atom    5 type  3   force =    -0.00002490    0.00000000    0.00000000
     atom    6 type  1   force =     0.00000000   -0.00020071   -0.00000000
     atom    7 type  3   force =     0.00000000    0.00002490    0.00000000
     atom    8 type  1   force =     0.00000000    0.00020071    0.00000000
     atom    9 type  3   force =     0.00000000   -0.00002490    0.00000000
     atom   10 type  1   force =     0.00000000    0.00000000   -0.00020071
     atom   11 type  3   force =    -0.00000000    0.00000000    0.00002490
     atom   12 type  1   force =     0.00000000    0.00000000    0.00020071
     atom   13 type  3   force =     0.00000000    0.00000000   -0.00002490

     Total force =     0.000495     Total SCF correction =     0.000081
     SCF correction compared to forces is large: reduce conv_thr to get better values
     Energy error            =      4.5E-05 Ry
     Gradient error          =      2.0E-04 Ry/Bohr

     number of scf cycles    =   8
     number of bfgs steps    =   6

     energy             old  =    -536.0151796207 Ry
     energy             new  =    -536.0152243977 Ry

     CASE: energy            _new < energy            _old

     new trust radius        =       0.0004807528 bohr
     new conv_thr            =       0.0000000002 Ry


ATOMIC_POSITIONS (angstrom)
Cr               9.1490000000        9.1490000000        9.1490000000
C               11.0489403306        9.1490000000        9.1490000000
O               12.2029212107        9.1490000000        9.1490000000
C                7.2490596694        9.1490000000        9.1490000000
O                6.0950787893        9.1490000000        9.1490000000
C                9.1490000000       11.0489403306        9.1490000000
O                9.1490000000       12.2029212107        9.1490000000
C                9.1490000000        7.2490596694        9.1490000000
O                9.1490000000        6.0950787893        9.1490000000
C                9.1490000000        9.1490000000       11.0489403306
O                9.1490000000        9.1490000000       12.2029212107
C                9.1490000000        9.1490000000        7.2490596694
O                9.1490000000        9.1490000000        6.0950787893



     Writing config-only to output data dir /home/duets/qe_workdirs/cr_co6__mc_dist__+0.06/cr_co6__mc_dist__+0.06.save/ :
     XML data file
     NEW-OLD atomic charge density approx. for the potential

     negative rho (up, down):  1.757E-02 0.000E+00

     total cpu time spent up to now is     5483.6 secs

     Self-consistent Calculation

     iteration #  1     ecut=    60.00 Ry     beta= 0.30
     Davidson diagonalization with overlap
     ethr =  1.00E-06,  avg # of iterations =  2.0

     Threshold (ethr) on eigenvalues was too large:
     Diagonalizing with lowered threshold

     Davidson diagonalization with overlap
     ethr =  1.92E-09,  avg # of iterations =  8.0

     negative rho (up, down):  1.757E-02 0.000E+00

     total cpu time spent up to now is     5526.4 secs

     total energy              =    -536.01522460 Ry
     estimated scf accuracy    <       0.00000036 Ry

     iteration #  2     ecut=    60.00 Ry     beta= 0.30
     Davidson diagonalization with overlap
     ethr =  4.82E-10,  avg # of iterations =  3.0

     negative rho (up, down):  1.756E-02 0.000E+00

     total cpu time spent up to now is     5552.7 secs

     total energy              =    -536.01522467 Ry
     estimated scf accuracy    <       0.00000013 Ry

     iteration #  3     ecut=    60.00 Ry     beta= 0.30
     Davidson diagonalization with overlap
     ethr =  1.81E-10,  avg # of iterations =  2.0

     negative rho (up, down):  1.756E-02 0.000E+00

     total cpu time spent up to now is     5576.9 secs

     total energy              =    -536.01522468 Ry
     estimated scf accuracy    <       0.00000004 Ry

     iteration #  4     ecut=    60.00 Ry     beta= 0.30
     Davidson diagonalization with overlap
     ethr =  4.96E-11,  avg # of iterations =  3.0

     negative rho (up, down):  1.756E-02 0.000E+00

     total cpu time spent up to now is     5598.9 secs

     total energy              =    -536.01522470 Ry
     estimated scf accuracy    <          6.0E-09 Ry

     iteration #  5     ecut=    60.00 Ry     beta= 0.30
     Davidson diagonalization with overlap
     ethr =  8.13E-12,  avg # of iterations =  6.0

     negative rho (up, down):  1.756E-02 0.000E+00

     total cpu time spent up to now is     5627.3 secs

     total energy              =    -536.01522469 Ry
     estimated scf accuracy    <       0.00000004 Ry

     iteration #  6     ecut=    60.00 Ry     beta= 0.30
     Davidson diagonalization with overlap
     ethr =  8.13E-12,  avg # of iterations =  7.0

     negative rho (up, down):  1.756E-02 0.000E+00

     total cpu time spent up to now is     5652.8 secs

     total energy              =    -536.01522470 Ry
     estimated scf accuracy    <          9.4E-09 Ry

     iteration #  7     ecut=    60.00 Ry     beta= 0.30
     Davidson diagonalization with overlap
     ethr =  8.13E-12,  avg # of iterations =  5.0

     negative rho (up, down):  1.756E-02 0.000E+00

     total cpu time spent up to now is     5673.0 secs

     total energy              =    -536.01522470 Ry
     estimated scf accuracy    <          4.5E-09 Ry

     iteration #  8     ecut=    60.00 Ry     beta= 0.30
     Davidson diagonalization with overlap
     ethr =  6.11E-12,  avg # of iterations =  4.0

     negative rho (up, down):  1.756E-02 0.000E+00

     total cpu time spent up to now is     5697.1 secs

     total energy              =    -536.01522470 Ry
     estimated scf accuracy    <          8.6E-10 Ry

     iteration #  9     ecut=    60.00 Ry     beta= 0.30
     Davidson diagonalization with overlap
     ethr =  1.16E-12,  avg # of iterations =  5.0

     negative rho (up, down):  1.756E-02 0.000E+00

     total cpu time spent up to now is     5723.1 secs

     total energy              =    -536.01522470 Ry
     estimated scf accuracy    <          3.3E-10 Ry

     iteration # 10     ecut=    60.00 Ry     beta= 0.30
     Davidson diagonalization with overlap
     ethr =  4.44E-13,  avg # of iterations =  2.0

     negative rho (up, down):  1.756E-02 0.000E+00

     total cpu time spent up to now is     5742.2 secs

     End of self-consistent calculation

          k = 0.0000 0.0000 0.0000 (162403 PWs)   bands (ev):

   -76.4057 -47.8358 -47.8358 -47.8358 -28.9425 -28.9142 -28.9142 -28.9142
   -28.9031 -28.9031 -15.5186 -14.1913 -14.1913 -14.1913 -14.1041 -14.1041
   -12.4843 -12.0582 -12.0582 -12.0582 -11.9409 -11.9409 -11.9409 -11.5383
   -11.5383 -11.5383 -11.3486 -11.3486 -11.3486 -11.2744 -11.2744 -10.2603
   -10.2603 -10.2603  -6.5478  -6.5478  -6.5478

     highest occupied level (ev):    -6.5478

!    total energy              =    -536.01522470 Ry
     estimated scf accuracy    <          1.7E-10 Ry

     The total energy is the sum of the following terms:
     one-electron contribution =   -2518.58435870 Ry
     hartree contribution      =    1262.37345730 Ry
     xc contribution           =     -93.26425674 Ry
     ewald contribution        =     907.72843083 Ry
     one-center paw contrib.   =     -94.26849737 Ry

     convergence has been achieved in  10 iterations

     negative rho (up, down):  1.756E-02 0.000E+00

     Forces acting on atoms (cartesian axes, Ry/au):

     atom    1 type  2   force =     0.00000000    0.00000000    0.00000000
     atom    2 type  1   force =    -0.00000364    0.00000000    0.00000000
     atom    3 type  3   force =    -0.00000437   -0.00000000    0.00000000
     atom    4 type  1   force =     0.00000364   -0.00000000    0.00000000
     atom    5 type  3   force =     0.00000437    0.00000000    0.00000000
     atom    6 type  1   force =     0.00000000   -0.00000364    0.00000000
     atom    7 type  3   force =    -0.00000000   -0.00000437    0.00000000
     atom    8 type  1   force =    -0.00000000    0.00000364    0.00000000
     atom    9 type  3   force =     0.00000000    0.00000437    0.00000000
     atom   10 type  1   force =     0.00000000    0.00000000   -0.00000364
     atom   11 type  3   force =     0.00000000    0.00000000   -0.00000437
     atom   12 type  1   force =     0.00000000    0.00000000    0.00000364
     atom   13 type  3   force =     0.00000000    0.00000000    0.00000437

     Total force =     0.000014     Total SCF correction =     0.000036
     SCF correction compared to forces is large: reduce conv_thr to get better values
     Energy error            =      3.0E-07 Ry
     Gradient error          =      4.4E-06 Ry/Bohr

     bfgs converged in   9 scf cycles and   7 bfgs steps
     (criteria: energy <  1.0E-05 Ry, force <  1.0E-04 Ry/Bohr)

     End of BFGS Geometry Optimization

     Final energy             =    -536.0152246952 Ry

     File /home/duets/qe_workdirs/cr_co6__mc_dist__+0.06/cr_co6__mc_dist__+0.06.bfgs deleted, as requested
Begin final coordinates

ATOMIC_POSITIONS (angstrom)
Cr               9.1490000000        9.1490000000        9.1490000000
C               11.0489403306        9.1490000000        9.1490000000
O               12.2029212107        9.1490000000        9.1490000000
C                7.2490596694        9.1490000000        9.1490000000
O                6.0950787893        9.1490000000        9.1490000000
C                9.1490000000       11.0489403306        9.1490000000
O                9.1490000000       12.2029212107        9.1490000000
C                9.1490000000        7.2490596694        9.1490000000
O                9.1490000000        6.0950787893        9.1490000000
C                9.1490000000        9.1490000000       11.0489403306
O                9.1490000000        9.1490000000       12.2029212107
C                9.1490000000        9.1490000000        7.2490596694
O                9.1490000000        9.1490000000        6.0950787893
End final coordinates



     Writing all to output data dir /home/duets/qe_workdirs/cr_co6__mc_dist__+0.06/cr_co6__mc_dist__+0.06.save/ :
     XML data file, charge density, pseudopotentials, collected wavefunctions

     init_run     :      8.82s CPU     14.21s WALL (       1 calls)
     electrons    :   3408.38s CPU   5544.52s WALL (       9 calls)
     update_pot   :     14.83s CPU     23.11s WALL (       8 calls)
     forces       :     57.54s CPU    112.14s WALL (       9 calls)

     Called by init_run:
     wfcinit      :      1.91s CPU      2.06s WALL (       1 calls)
     potinit      :      1.94s CPU      2.84s WALL (       1 calls)
     hinit0       :      0.91s CPU      1.22s WALL (       1 calls)

     Called by electrons:
     c_bands      :   1003.98s CPU   1220.69s WALL (     229 calls)
     sum_band     :   1318.42s CPU   2093.82s WALL (     229 calls)
     v_of_rho     :    304.01s CPU    505.99s WALL (     237 calls)
     newd         :    653.16s CPU   1606.21s WALL (     237 calls)
     PAW_pot      :     19.24s CPU     19.43s WALL (     245 calls)
     mix_rho      :     88.76s CPU    107.47s WALL (     229 calls)

     Called by c_bands:
     init_us_2    :     18.68s CPU     24.47s WALL (     476 calls)
     regterg      :    980.28s CPU   1191.26s WALL (     229 calls)

     Called by *egterg:
     rdiaghg      :      2.16s CPU      3.87s WALL (    1202 calls)
     h_psi        :    830.09s CPU    960.31s WALL (    1212 calls)
     s_psi        :     25.28s CPU     26.35s WALL (    1212 calls)
     g_psi        :      2.57s CPU      2.49s WALL (     982 calls)

     Called by h_psi:
     h_psi:calbec :     37.86s CPU     62.63s WALL (    1212 calls)
     vloc_psi     :    761.08s CPU    869.80s WALL (    1212 calls)
     add_vuspsi   :     26.57s CPU     23.32s WALL (    1212 calls)

     General routines
     calbec       :     50.21s CPU     85.96s WALL (    1485 calls)
     fft          :    304.39s CPU    497.56s WALL (    2688 calls)
     ffts         :     21.03s CPU     27.71s WALL (     466 calls)
     fftw         :    583.59s CPU    708.37s WALL (   31119 calls)
     interpolate  :     42.67s CPU     51.93s WALL (     237 calls)

     Parallel routines

     PWSCF        :  58m34.97s CPU      1h35m WALL


   This run was terminated on:  10:40:38  30Jun2026            

=------------------------------------------------------------------------------=
   JOB DONE.
=------------------------------------------------------------------------------=
