
     Program PWSCF v.7.4.1 starts on 29Jun2026 at  3: 4:12 

     This program is part of the open-source Quantum ESPRESSO suite
     for quantum simulation of materials; please cite
         "P. Giannozzi et al., J. Phys.:Condens. Matter 21 395502 (2009);
         "P. Giannozzi et al., J. Phys.:Condens. Matter 29 465901 (2017);
         "P. Giannozzi et al., J. Chem. Phys. 152 154105 (2020);
          URL http://www.quantum-espresso.org", 
     in publications or presentations arising from this work. More details at
     http://www.quantum-espresso.org/quote

     Parallel version (MPI), running on     4 processors

     MPI processes distributed on     1 nodes
     15218 MiB available memory on the printing compute node when the environment starts

     Reading input from qe/inputs/relax/ni_co4_initial.in

     Current dimensions of program PWSCF are:
     Max number of different atomic species (ntypx) = 10
     Max number of k-points (npk) =  40000
     Max angular momentum in pseudopotentials (lmaxx) =  4
     file C.pbe-n-kjpaw_psl.1.0.0.UPF: wavefunction(s)  2S 2P renormalized
     file O.pbe-n-kjpaw_psl.0.1.UPF: wavefunction(s)  2P renormalized

     gamma-point specific algorithms are used
     Message from routine setup:
     using ibrav=0 with symmetry is DISCOURAGED, use correct ibrav instead

     R & G space division:  proc/nbgrp/npool/nimage =       4
     Subspace diagonalization in iterative solution of the eigenvalue problem:
     a serial algorithm will be used


     Parallelization info
     --------------------
     sticks:   dense  smooth     PW     G-vecs:    dense   smooth      PW
     Min        8114    4053   1011              1099210   388523   48609
     Max        8115    4056   1014              1099217   388528   48614
     Sum       32457   16221   4049              4396851  1554107  194447

     Using Slab Decomposition



     bravais-lattice index     =            0
     lattice parameter (alat)  =      29.1465  a.u.
     unit-cell volume          =   24760.6027 (a.u.)^3
     number of atoms/cell      =            9
     number of atomic types    =            3
     number of electrons       =        58.00
     number of Kohn-Sham states=           29
     kinetic-energy cutoff     =      60.0000  Ry
     charge density cutoff     =     480.0000  Ry
     scf convergence threshold =      1.0E-08
     mixing beta               =       0.3000
     number of iterations used =            8  plain     mixing
     energy convergence thresh.=      1.0E-05
     force convergence thresh. =      1.0E-04
     Exchange-correlation= SLA  PW   PBX  PBC
                           (   1   4   3   4   0   0   0)
     nstep                     =           50

     Assuming isolated system, Martyna-Tuckerman method


     celldm(1)=  29.146544  celldm(2)=   0.000000  celldm(3)=   0.000000
     celldm(4)=   0.000000  celldm(5)=   0.000000  celldm(6)=   0.000000

     crystal axes: (cart. coord. in units of alat)
               a(1) = (   1.000000   0.000000   0.000000 )  
               a(2) = (   0.000000   1.000000   0.000000 )  
               a(3) = (   0.000000   0.000000   1.000000 )  

     reciprocal axes: (cart. coord. in units 2 pi/alat)
               b(1) = (  1.000000  0.000000  0.000000 )  
               b(2) = (  0.000000  1.000000  0.000000 )  
               b(3) = (  0.000000  0.000000  1.000000 )  


     PseudoPot. # 1 for C  read from file:
     /mnt/d/Rifat_kh/SSSP_1.3.0_PBE_efficiency/C.pbe-n-kjpaw_psl.1.0.0.UPF
     MD5 check sum: 5d2aebdfa2cae82b50a7e79e9516da0f
     Pseudo is Projector augmented-wave + core cor, Zval =  4.0
     Generated using "atomic" code by A. Dal Corso  v.5.1
     Shape of augmentation charge: PSQ
     Using radial grid of 1073 points,  4 beta functions with: 
                l(1) =   0
                l(2) =   0
                l(3) =   1
                l(4) =   1
     Q(r) pseudized with 0 coefficients 


     PseudoPot. # 2 for Ni read from file:
     /mnt/d/Rifat_kh/SSSP_1.3.0_PBE_efficiency/ni_pbe_v1.4.uspp.F.UPF
     MD5 check sum: 1ee80287db30b12d2bc1f57a5b5d6409
     Pseudo is Ultrasoft + core correction, Zval = 18.0
     Generated by new atomic code, or converted to UPF format
     Using radial grid of  865 points,  6 beta functions with: 
                l(1) =   0
                l(2) =   0
                l(3) =   1
                l(4) =   1
                l(5) =   2
                l(6) =   2
     Q(r) pseudized with 10 coefficients,  rinner =    0.980   0.980   0.980
                                                       0.980   0.980

     PseudoPot. # 3 for O  read from file:
     /mnt/d/Rifat_kh/SSSP_1.3.0_PBE_efficiency/O.pbe-n-kjpaw_psl.0.1.UPF
     MD5 check sum: 0234752ac141de4415c5fc33072bef88
     Pseudo is Projector augmented-wave + core cor, Zval =  6.0
     Generated using "atomic" code by A. Dal Corso  v.5.0.99 svn rev. 10869
     Shape of augmentation charge: BESSEL
     Using radial grid of 1095 points,  4 beta functions with: 
                l(1) =   0
                l(2) =   0
                l(3) =   1
                l(4) =   1
     Q(r) pseudized with 0 coefficients 


     atomic species   valence    mass     pseudopotential
     C                 4.00    12.01100     C ( 1.00)
     Ni               18.00    58.69340     Ni( 1.00)
     O                 6.00    15.99900     O ( 1.00)

     24 Sym. Ops. (no inversion) found



   Cartesian axes

     site n.     atom                  positions (alat units)
         1        Ni     tau(   1) = (   0.5000000   0.5000000   0.5000000  )
         2        C      tau(   2) = (   0.5688013   0.5688013   0.5688013  )
         3        O      tau(   3) = (   0.6109880   0.6109880   0.6109880  )
         4        C      tau(   4) = (   0.5688013   0.4311987   0.4311987  )
         5        O      tau(   5) = (   0.6109880   0.3890120   0.3890120  )
         6        C      tau(   6) = (   0.4311987   0.5688013   0.4311987  )
         7        O      tau(   7) = (   0.3890120   0.6109880   0.3890120  )
         8        C      tau(   8) = (   0.4311987   0.4311987   0.5688013  )
         9        O      tau(   9) = (   0.3890120   0.3890120   0.6109880  )

     number of k points=     1
                       cart. coord. in units 2pi/alat
        k(    1) = (   0.0000000   0.0000000   0.0000000), wk =   2.0000000

     Dense  grid:  2198426 G-vectors     FFT dimensions: ( 216, 216, 216)

     Smooth grid:   777054 G-vectors     FFT dimensions: ( 144, 144, 144)

     Estimated max dynamical RAM per process >       2.08 GB

     Estimated total dynamical RAM >       8.31 GB

     Initial potential from superposition of free atoms

     starting charge      55.9998, renormalised to      58.0000

     negative rho (up, down):  1.837E-03 0.000E+00
     Starting wfcs are   45 randomized atomic wfcs
     Checking if some PAW data can be deallocated... 

     total cpu time spent up to now is        9.0 secs

     Self-consistent Calculation

     iteration #  1     ecut=    60.00 Ry     beta= 0.30
     Davidson diagonalization with overlap
     ethr =  1.00E-02,  avg # of iterations =  3.0

     negative rho (up, down):  1.737E-03 0.000E+00

     total cpu time spent up to now is       22.3 secs

     total energy              =    -580.52573902 Ry
     estimated scf accuracy    <       8.75456512 Ry

     iteration #  2     ecut=    60.00 Ry     beta= 0.30
     Davidson diagonalization with overlap
     ethr =  1.00E-02,  avg # of iterations =  4.0

     negative rho (up, down):  2.253E-03 0.000E+00

     total cpu time spent up to now is       34.3 secs

     total energy              =    -583.41919983 Ry
     estimated scf accuracy    <       8.38338945 Ry

     iteration #  3     ecut=    60.00 Ry     beta= 0.30
     Davidson diagonalization with overlap
     ethr =  1.00E-02,  avg # of iterations =  2.0

     negative rho (up, down):  2.506E-03 0.000E+00

     total cpu time spent up to now is       47.5 secs

     total energy              =    -581.87488483 Ry
     estimated scf accuracy    <       3.39087585 Ry

     iteration #  4     ecut=    60.00 Ry     beta= 0.30
     Davidson diagonalization with overlap
     ethr =  5.85E-03,  avg # of iterations =  8.0

     negative rho (up, down):  2.959E-03 0.000E+00

     total cpu time spent up to now is       60.3 secs

     total energy              =    -581.03790690 Ry
     estimated scf accuracy    <      41.70804676 Ry

     iteration #  5     ecut=    60.00 Ry     beta= 0.30
     Davidson diagonalization with overlap
     ethr =  5.85E-03,  avg # of iterations =  6.0

     negative rho (up, down):  3.356E-03 0.000E+00

     total cpu time spent up to now is       73.1 secs

     total energy              =    -583.59893356 Ry
     estimated scf accuracy    <       0.33558174 Ry

     iteration #  6     ecut=    60.00 Ry     beta= 0.30
     Davidson diagonalization with overlap
     ethr =  5.79E-04,  avg # of iterations =  4.0

     negative rho (up, down):  3.649E-03 0.000E+00

     total cpu time spent up to now is       86.5 secs

     total energy              =    -583.69425869 Ry
     estimated scf accuracy    <       0.47890362 Ry

     iteration #  7     ecut=    60.00 Ry     beta= 0.30
     Davidson diagonalization with overlap
     ethr =  5.79E-04,  avg # of iterations =  1.0

     negative rho (up, down):  4.287E-03 0.000E+00

     total cpu time spent up to now is       97.6 secs

     total energy              =    -583.41441802 Ry
     estimated scf accuracy    <       0.62751808 Ry

     iteration #  8     ecut=    60.00 Ry     beta= 0.30
     Davidson diagonalization with overlap
     ethr =  5.79E-04,  avg # of iterations =  9.0

     negative rho (up, down):  5.568E-03 0.000E+00

     total cpu time spent up to now is      111.3 secs

     total energy              =    -584.39576356 Ry
     estimated scf accuracy    <       7.03367369 Ry

     iteration #  9     ecut=    60.00 Ry     beta= 0.30
     Davidson diagonalization with overlap
     ethr =  5.79E-04,  avg # of iterations =  6.0

     negative rho (up, down):  5.779E-03 0.000E+00

     total cpu time spent up to now is      124.8 secs

     total energy              =    -584.18753415 Ry
     estimated scf accuracy    <      19.73148698 Ry

     iteration # 10     ecut=    60.00 Ry     beta= 0.30
     Davidson diagonalization with overlap
     ethr =  5.79E-04,  avg # of iterations =  5.0

     negative rho (up, down):  5.969E-03 0.000E+00

     total cpu time spent up to now is      136.6 secs

     total energy              =    -584.10317690 Ry
     estimated scf accuracy    <      15.03149844 Ry

     iteration # 11     ecut=    60.00 Ry     beta= 0.30
     Davidson diagonalization with overlap
     ethr =  5.79E-04,  avg # of iterations =  2.0

     negative rho (up, down):  6.256E-03 0.000E+00

     total cpu time spent up to now is      150.7 secs

     total energy              =    -584.05424039 Ry
     estimated scf accuracy    <      13.97504631 Ry

     iteration # 12     ecut=    60.00 Ry     beta= 0.30
     Davidson diagonalization with overlap
     ethr =  5.79E-04,  avg # of iterations =  1.0

     negative rho (up, down):  5.227E-03 0.000E+00

     total cpu time spent up to now is      161.4 secs

     total energy              =    -582.55593712 Ry
     estimated scf accuracy    <      13.41806718 Ry

     iteration # 13     ecut=    60.00 Ry     beta= 0.30
     Davidson diagonalization with overlap
     ethr =  5.79E-04,  avg # of iterations =  8.0

     negative rho (up, down):  4.669E-03 0.000E+00

     total cpu time spent up to now is      175.0 secs

     total energy              =    -583.57850611 Ry
     estimated scf accuracy    <       0.28876148 Ry

     iteration # 14     ecut=    60.00 Ry     beta= 0.30
     Davidson diagonalization with overlap
     ethr =  4.98E-04,  avg # of iterations =  1.0

     negative rho (up, down):  4.086E-03 0.000E+00

     total cpu time spent up to now is      187.9 secs

     total energy              =    -583.67384962 Ry
     estimated scf accuracy    <       0.17514374 Ry

     iteration # 15     ecut=    60.00 Ry     beta= 0.30
     Davidson diagonalization with overlap
     ethr =  3.02E-04,  avg # of iterations =  5.0

     negative rho (up, down):  4.311E-03 0.000E+00

     total cpu time spent up to now is      201.1 secs

     total energy              =    -583.62276241 Ry
     estimated scf accuracy    <       1.76923348 Ry

     iteration # 16     ecut=    60.00 Ry     beta= 0.30
     Davidson diagonalization with overlap
     ethr =  3.02E-04,  avg # of iterations =  3.0

     negative rho (up, down):  4.302E-03 0.000E+00

     total cpu time spent up to now is      214.9 secs

     total energy              =    -583.70940315 Ry
     estimated scf accuracy    <       1.02480656 Ry

     iteration # 17     ecut=    60.00 Ry     beta= 0.30
     Davidson diagonalization with overlap
     ethr =  3.02E-04,  avg # of iterations =  1.0

     negative rho (up, down):  4.363E-03 0.000E+00

     total cpu time spent up to now is      226.0 secs

     total energy              =    -583.71898100 Ry
     estimated scf accuracy    <       1.12662510 Ry

     iteration # 18     ecut=    60.00 Ry     beta= 0.30
     Davidson diagonalization with overlap
     ethr =  3.02E-04,  avg # of iterations =  1.0

     negative rho (up, down):  4.479E-03 0.000E+00

     total cpu time spent up to now is      237.2 secs

     total energy              =    -583.65115576 Ry
     estimated scf accuracy    <       1.15843107 Ry

     iteration # 19     ecut=    60.00 Ry     beta= 0.30
     Davidson diagonalization with overlap
     ethr =  3.02E-04,  avg # of iterations =  1.0

     negative rho (up, down):  4.597E-03 0.000E+00

     total cpu time spent up to now is      250.4 secs

     total energy              =    -583.60048357 Ry
     estimated scf accuracy    <       0.91852234 Ry

     iteration # 20     ecut=    60.00 Ry     beta= 0.30
     Davidson diagonalization with overlap
     ethr =  3.02E-04,  avg # of iterations =  1.0

     negative rho (up, down):  4.593E-03 0.000E+00

     total cpu time spent up to now is      261.2 secs

     total energy              =    -583.59780221 Ry
     estimated scf accuracy    <       0.70705913 Ry

     iteration # 21     ecut=    60.00 Ry     beta= 0.30
     Davidson diagonalization with overlap
     ethr =  3.02E-04,  avg # of iterations =  1.0

     negative rho (up, down):  4.462E-03 0.000E+00

     total cpu time spent up to now is      272.8 secs

     total energy              =    -583.42547930 Ry
     estimated scf accuracy    <       0.66574885 Ry

     iteration # 22     ecut=    60.00 Ry     beta= 0.30
     Davidson diagonalization with overlap
     ethr =  3.02E-04,  avg # of iterations =  7.0

     negative rho (up, down):  4.416E-03 0.000E+00

     total cpu time spent up to now is      286.9 secs

     total energy              =    -583.51170517 Ry
     estimated scf accuracy    <       0.59839932 Ry

     iteration # 23     ecut=    60.00 Ry     beta= 0.30
     Davidson diagonalization with overlap
     ethr =  3.02E-04,  avg # of iterations =  6.0

     negative rho (up, down):  4.424E-03 0.000E+00

     total cpu time spent up to now is      299.6 secs

     total energy              =    -583.55326937 Ry
     estimated scf accuracy    <       0.04429887 Ry

     iteration # 24     ecut=    60.00 Ry     beta= 0.30
     Davidson diagonalization with overlap
     ethr =  7.64E-05,  avg # of iterations =  2.0

     negative rho (up, down):  4.410E-03 0.000E+00

     total cpu time spent up to now is      311.0 secs

     total energy              =    -583.55397645 Ry
     estimated scf accuracy    <       0.01093289 Ry

     iteration # 25     ecut=    60.00 Ry     beta= 0.30
     Davidson diagonalization with overlap
     ethr =  1.88E-05,  avg # of iterations =  5.0

     negative rho (up, down):  4.434E-03 0.000E+00

     total cpu time spent up to now is      324.8 secs

     total energy              =    -583.55915358 Ry
     estimated scf accuracy    <       0.01249717 Ry

     iteration # 26     ecut=    60.00 Ry     beta= 0.30
     Davidson diagonalization with overlap
     ethr =  1.88E-05,  avg # of iterations =  2.0

     negative rho (up, down):  4.478E-03 0.000E+00

     total cpu time spent up to now is      336.6 secs

     total energy              =    -583.55742888 Ry
     estimated scf accuracy    <       0.01103791 Ry

     iteration # 27     ecut=    60.00 Ry     beta= 0.30
     Davidson diagonalization with overlap
     ethr =  1.88E-05,  avg # of iterations =  5.0

     negative rho (up, down):  4.486E-03 0.000E+00

     total cpu time spent up to now is      349.8 secs

     total energy              =    -583.55869433 Ry
     estimated scf accuracy    <       0.00123101 Ry

     iteration # 28     ecut=    60.00 Ry     beta= 0.30
     Davidson diagonalization with overlap
     ethr =  2.12E-06,  avg # of iterations =  5.0

     negative rho (up, down):  4.487E-03 0.000E+00

     total cpu time spent up to now is      362.2 secs

     total energy              =    -583.55887304 Ry
     estimated scf accuracy    <       0.00366950 Ry

     iteration # 29     ecut=    60.00 Ry     beta= 0.30
     Davidson diagonalization with overlap
     ethr =  2.12E-06,  avg # of iterations =  2.0

     negative rho (up, down):  4.491E-03 0.000E+00

     total cpu time spent up to now is      374.0 secs

     total energy              =    -583.55835512 Ry
     estimated scf accuracy    <       0.00387307 Ry

     iteration # 30     ecut=    60.00 Ry     beta= 0.30
     Davidson diagonalization with overlap
     ethr =  2.12E-06,  avg # of iterations =  4.0

     negative rho (up, down):  4.509E-03 0.000E+00

     total cpu time spent up to now is      387.7 secs

     total energy              =    -583.55837168 Ry
     estimated scf accuracy    <       0.00118127 Ry

     iteration # 31     ecut=    60.00 Ry     beta= 0.30
     Davidson diagonalization with overlap
     ethr =  2.04E-06,  avg # of iterations =  6.0

     negative rho (up, down):  4.516E-03 0.000E+00

     total cpu time spent up to now is      400.4 secs

     total energy              =    -583.55862108 Ry
     estimated scf accuracy    <       0.00173880 Ry

     iteration # 32     ecut=    60.00 Ry     beta= 0.30
     Davidson diagonalization with overlap
     ethr =  2.04E-06,  avg # of iterations =  1.0

     negative rho (up, down):  4.518E-03 0.000E+00

     total cpu time spent up to now is      411.8 secs

     total energy              =    -583.55848437 Ry
     estimated scf accuracy    <       0.00102517 Ry

     iteration # 33     ecut=    60.00 Ry     beta= 0.30
     Davidson diagonalization with overlap
     ethr =  1.77E-06,  avg # of iterations =  5.0

     negative rho (up, down):  4.521E-03 0.000E+00

     total cpu time spent up to now is      425.5 secs

     total energy              =    -583.55862971 Ry
     estimated scf accuracy    <       0.00012388 Ry

     iteration # 34     ecut=    60.00 Ry     beta= 0.30
     Davidson diagonalization with overlap
     ethr =  2.14E-07,  avg # of iterations =  2.0

     negative rho (up, down):  4.523E-03 0.000E+00

     total cpu time spent up to now is      436.9 secs

     total energy              =    -583.55864246 Ry
     estimated scf accuracy    <       0.00009450 Ry

     iteration # 35     ecut=    60.00 Ry     beta= 0.30
     Davidson diagonalization with overlap
     ethr =  1.63E-07,  avg # of iterations =  4.0

     negative rho (up, down):  4.524E-03 0.000E+00

     total cpu time spent up to now is      449.7 secs

     total energy              =    -583.55864040 Ry
     estimated scf accuracy    <       0.00011264 Ry

     iteration # 36     ecut=    60.00 Ry     beta= 0.30
     Davidson diagonalization with overlap
     ethr =  1.63E-07,  avg # of iterations =  1.0

     negative rho (up, down):  4.527E-03 0.000E+00

     total cpu time spent up to now is      461.4 secs

     total energy              =    -583.55862747 Ry
     estimated scf accuracy    <       0.00008752 Ry

     iteration # 37     ecut=    60.00 Ry     beta= 0.30
     Davidson diagonalization with overlap
     ethr =  1.51E-07,  avg # of iterations =  2.0

     negative rho (up, down):  4.526E-03 0.000E+00

     total cpu time spent up to now is      473.2 secs

     total energy              =    -583.55862805 Ry
     estimated scf accuracy    <       0.00002922 Ry

     iteration # 38     ecut=    60.00 Ry     beta= 0.30
     Davidson diagonalization with overlap
     ethr =  5.04E-08,  avg # of iterations =  5.0

     negative rho (up, down):  4.524E-03 0.000E+00

     total cpu time spent up to now is      487.3 secs

     total energy              =    -583.55863545 Ry
     estimated scf accuracy    <       0.00001688 Ry

     iteration # 39     ecut=    60.00 Ry     beta= 0.30
     Davidson diagonalization with overlap
     ethr =  2.91E-08,  avg # of iterations =  4.0

     negative rho (up, down):  4.524E-03 0.000E+00

     total cpu time spent up to now is      499.0 secs

     total energy              =    -583.55863370 Ry
     estimated scf accuracy    <       0.00001648 Ry

     iteration # 40     ecut=    60.00 Ry     beta= 0.30
     Davidson diagonalization with overlap
     ethr =  2.84E-08,  avg # of iterations =  2.0

     negative rho (up, down):  4.524E-03 0.000E+00

     total cpu time spent up to now is      510.6 secs

     total energy              =    -583.55863440 Ry
     estimated scf accuracy    <       0.00000499 Ry

     iteration # 41     ecut=    60.00 Ry     beta= 0.30
     Davidson diagonalization with overlap
     ethr =  8.59E-09,  avg # of iterations =  4.0

     negative rho (up, down):  4.525E-03 0.000E+00

     total cpu time spent up to now is      524.0 secs

     total energy              =    -583.55863505 Ry
     estimated scf accuracy    <       0.00000033 Ry

     iteration # 42     ecut=    60.00 Ry     beta= 0.30
     Davidson diagonalization with overlap
     ethr =  5.66E-10,  avg # of iterations =  8.0

     negative rho (up, down):  4.525E-03 0.000E+00

     total cpu time spent up to now is      537.3 secs

     total energy              =    -583.55863519 Ry
     estimated scf accuracy    <       0.00000369 Ry

     iteration # 43     ecut=    60.00 Ry     beta= 0.30
     Davidson diagonalization with overlap
     ethr =  5.66E-10,  avg # of iterations =  3.0

     negative rho (up, down):  4.525E-03 0.000E+00

     total cpu time spent up to now is      550.9 secs

     total energy              =    -583.55863518 Ry
     estimated scf accuracy    <       0.00000254 Ry

     iteration # 44     ecut=    60.00 Ry     beta= 0.30
     Davidson diagonalization with overlap
     ethr =  5.66E-10,  avg # of iterations =  2.0

     negative rho (up, down):  4.525E-03 0.000E+00

     total cpu time spent up to now is      562.1 secs

     total energy              =    -583.55863500 Ry
     estimated scf accuracy    <       0.00000200 Ry

     iteration # 45     ecut=    60.00 Ry     beta= 0.30
     Davidson diagonalization with overlap
     ethr =  5.66E-10,  avg # of iterations =  6.0

     negative rho (up, down):  4.525E-03 0.000E+00

     total cpu time spent up to now is      574.5 secs

     total energy              =    -583.55863512 Ry
     estimated scf accuracy    <       0.00000006 Ry

     iteration # 46     ecut=    60.00 Ry     beta= 0.30
     Davidson diagonalization with overlap
     ethr =  1.10E-10,  avg # of iterations =  2.0

     negative rho (up, down):  4.525E-03 0.000E+00

     total cpu time spent up to now is      588.1 secs

     total energy              =    -583.55863512 Ry
     estimated scf accuracy    <       0.00000005 Ry

     iteration # 47     ecut=    60.00 Ry     beta= 0.30
     Davidson diagonalization with overlap
     ethr =  9.35E-11,  avg # of iterations =  1.0

     negative rho (up, down):  4.525E-03 0.000E+00

     total cpu time spent up to now is      599.2 secs

     total energy              =    -583.55863512 Ry
     estimated scf accuracy    <       0.00000004 Ry

     iteration # 48     ecut=    60.00 Ry     beta= 0.30
     Davidson diagonalization with overlap
     ethr =  6.52E-11,  avg # of iterations =  2.0

     negative rho (up, down):  4.525E-03 0.000E+00

     total cpu time spent up to now is      611.1 secs

     total energy              =    -583.55863512 Ry
     estimated scf accuracy    <       0.00000004 Ry

     iteration # 49     ecut=    60.00 Ry     beta= 0.30
     Davidson diagonalization with overlap
     ethr =  6.52E-11,  avg # of iterations =  2.0

     negative rho (up, down):  4.525E-03 0.000E+00

     total cpu time spent up to now is      624.0 secs

     total energy              =    -583.55863512 Ry
     estimated scf accuracy    <       0.00000004 Ry

     iteration # 50     ecut=    60.00 Ry     beta= 0.30
     Davidson diagonalization with overlap
     ethr =  6.52E-11,  avg # of iterations =  2.0

     negative rho (up, down):  4.525E-03 0.000E+00

     total cpu time spent up to now is      635.4 secs

     total energy              =    -583.55863512 Ry
     estimated scf accuracy    <       0.00000002 Ry

     iteration # 51     ecut=    60.00 Ry     beta= 0.30
     Davidson diagonalization with overlap
     ethr =  3.03E-11,  avg # of iterations =  4.0

     negative rho (up, down):  4.525E-03 0.000E+00

     total cpu time spent up to now is      647.2 secs

     End of self-consistent calculation

          k = 0.0000 0.0000 0.0000 ( 97224 PWs)   bands (ev):

  -108.8423 -69.2296 -69.2296 -69.2296 -29.2868 -29.2796 -29.2796 -29.2796
   -14.7301 -14.1045 -14.1045 -14.1044 -12.2994 -11.9318 -11.9318 -11.9015
   -11.9015 -11.9015 -11.7059 -11.7059 -11.7059 -11.1546 -11.1546 -11.1545
    -7.4521  -7.4521  -6.4021  -6.4021  -6.4021

     highest occupied level (ev):    -6.4021

!    total energy              =    -583.55863511 Ry
     estimated scf accuracy    <          4.1E-09 Ry

     The total energy is the sum of the following terms:
     one-electron contribution =   -2014.03636301 Ry
     hartree contribution      =    1008.09777712 Ry
     xc contribution           =     -82.70269709 Ry
     ewald contribution        =     567.93207724 Ry
     one-center paw contrib.   =     -62.84942938 Ry

     convergence has been achieved in  51 iterations

     negative rho (up, down):  4.525E-03 0.000E+00

     Forces acting on atoms (cartesian axes, Ry/au):

     atom    1 type  2   force =     0.00000000    0.00000000    0.00000000
     atom    2 type  1   force =    -0.06900605   -0.06900605   -0.06900605
     atom    3 type  3   force =     0.06063959    0.06063959    0.06063959
     atom    4 type  1   force =    -0.06900605    0.06900605    0.06900605
     atom    5 type  3   force =     0.06063959   -0.06063959   -0.06063959
     atom    6 type  1   force =     0.06900605   -0.06900605    0.06900605
     atom    7 type  3   force =    -0.06063959    0.06063959   -0.06063959
     atom    8 type  1   force =     0.06900605    0.06900605   -0.06900605
     atom    9 type  3   force =    -0.06063959   -0.06063959    0.06063959

     Total force =     0.318226     Total SCF correction =     0.000155

     BFGS Geometry Optimization
     Energy error            =      1.0E-01 Ry
     Gradient error          =      6.9E-02 Ry/Bohr

     number of scf cycles    =   1
     number of bfgs steps    =   0

     energy             new  =    -583.5586351124 Ry

     new trust radius        =       0.1195219849 bohr
     new conv_thr            =       0.0000000100 Ry


ATOMIC_POSITIONS (angstrom)
Ni               7.7118435500        7.7118435500        7.7118435500
C                8.7364969108        8.7364969108        8.7364969108
O                9.4557761870        9.4557761870        9.4557761870
C                8.7364969108        6.6871901792        6.6871901792
O                9.4557761870        5.9679109130        5.9679109130
C                6.6871901792        8.7364969108        6.6871901792
O                5.9679109130        9.4557761870        5.9679109130
C                6.6871901792        6.6871901792        8.7364969108
O                5.9679109130        5.9679109130        9.4557761870



     Writing config-only to output data dir /mnt/d/Research/Dr.Kulik_MIT/qe/workdirs/ni_co4_initial/ni_co4_initial.save/ :
     XML data file
     NEW-OLD atomic charge density approx. for the potential

     negative rho (up, down):  4.082E-03 0.000E+00

     total cpu time spent up to now is      661.6 secs

     Self-consistent Calculation

     iteration #  1     ecut=    60.00 Ry     beta= 0.30
     Davidson diagonalization with overlap
     c_bands:  3 eigenvalues not converged
     ethr =  1.00E-06,  avg # of iterations = 20.0

     negative rho (up, down):  4.059E-03 0.000E+00

     total cpu time spent up to now is      685.4 secs

     total energy              =    -583.39679184 Ry
     estimated scf accuracy    <       0.20279330 Ry

     iteration #  2     ecut=    60.00 Ry     beta= 0.30
     Davidson diagonalization with overlap
     ethr =  3.50E-04,  avg # of iterations =  7.0

     negative rho (up, down):  4.208E-03 0.000E+00

     total cpu time spent up to now is      698.4 secs

     total energy              =    -583.39955827 Ry
     estimated scf accuracy    <       0.71950270 Ry

     iteration #  3     ecut=    60.00 Ry     beta= 0.30
     Davidson diagonalization with overlap
     ethr =  3.50E-04,  avg # of iterations =  6.0

     negative rho (up, down):  4.138E-03 0.000E+00

     total cpu time spent up to now is      710.6 secs

     total energy              =    -583.44786073 Ry
     estimated scf accuracy    <       0.01593969 Ry

     iteration #  4     ecut=    60.00 Ry     beta= 0.30
     Davidson diagonalization with overlap
     ethr =  2.75E-05,  avg # of iterations =  2.0

     negative rho (up, down):  4.171E-03 0.000E+00

     total cpu time spent up to now is      724.0 secs

     total energy              =    -583.44986394 Ry
     estimated scf accuracy    <       0.00220314 Ry

     iteration #  5     ecut=    60.00 Ry     beta= 0.30
     Davidson diagonalization with overlap
     ethr =  3.80E-06,  avg # of iterations =  5.0

     negative rho (up, down):  4.224E-03 0.000E+00

     total cpu time spent up to now is      736.7 secs

     total energy              =    -583.44977360 Ry
     estimated scf accuracy    <       0.00226112 Ry

     iteration #  6     ecut=    60.00 Ry     beta= 0.30
     Davidson diagonalization with overlap
     ethr =  3.80E-06,  avg # of iterations =  5.0

     negative rho (up, down):  4.273E-03 0.000E+00

     total cpu time spent up to now is      749.5 secs

     total energy              =    -583.45042741 Ry
     estimated scf accuracy    <       0.00221028 Ry

     iteration #  7     ecut=    60.00 Ry     beta= 0.30
     Davidson diagonalization with overlap
     ethr =  3.80E-06,  avg # of iterations =  2.0

     negative rho (up, down):  4.266E-03 0.000E+00

     total cpu time spent up to now is      762.7 secs

     total energy              =    -583.45019299 Ry
     estimated scf accuracy    <       0.00154257 Ry

     iteration #  8     ecut=    60.00 Ry     beta= 0.30
     Davidson diagonalization with overlap
     ethr =  2.66E-06,  avg # of iterations =  4.0

     negative rho (up, down):  4.265E-03 0.000E+00

     total cpu time spent up to now is      774.3 secs

     total energy              =    -583.45047351 Ry
     estimated scf accuracy    <       0.00017800 Ry

     iteration #  9     ecut=    60.00 Ry     beta= 0.30
     Davidson diagonalization with overlap
     ethr =  3.07E-07,  avg # of iterations =  4.0

     negative rho (up, down):  4.267E-03 0.000E+00

     total cpu time spent up to now is      788.5 secs

     total energy              =    -583.45051100 Ry
     estimated scf accuracy    <       0.00010352 Ry

     iteration # 10     ecut=    60.00 Ry     beta= 0.30
     Davidson diagonalization with overlap
     ethr =  1.78E-07,  avg # of iterations =  2.0

     negative rho (up, down):  4.273E-03 0.000E+00

     total cpu time spent up to now is      799.9 secs

     total energy              =    -583.45047909 Ry
     estimated scf accuracy    <       0.00012841 Ry

     iteration # 11     ecut=    60.00 Ry     beta= 0.30
     Davidson diagonalization with overlap
     ethr =  1.78E-07,  avg # of iterations =  3.0

     negative rho (up, down):  4.283E-03 0.000E+00

     total cpu time spent up to now is      811.3 secs

     total energy              =    -583.45046464 Ry
     estimated scf accuracy    <       0.00003843 Ry

     iteration # 12     ecut=    60.00 Ry     beta= 0.30
     Davidson diagonalization with overlap
     ethr =  6.63E-08,  avg # of iterations =  6.0

     negative rho (up, down):  4.283E-03 0.000E+00

     total cpu time spent up to now is      827.1 secs

     total energy              =    -583.45051601 Ry
     estimated scf accuracy    <       0.00027223 Ry

     iteration # 13     ecut=    60.00 Ry     beta= 0.30
     Davidson diagonalization with overlap
     ethr =  6.63E-08,  avg # of iterations =  1.0

     negative rho (up, down):  4.283E-03 0.000E+00

     total cpu time spent up to now is      838.2 secs

     total energy              =    -583.45045178 Ry
     estimated scf accuracy    <       0.00023270 Ry

     iteration # 14     ecut=    60.00 Ry     beta= 0.30
     Davidson diagonalization with overlap
     ethr =  6.63E-08,  avg # of iterations =  5.0

     negative rho (up, down):  4.284E-03 0.000E+00

     total cpu time spent up to now is      850.7 secs

     total energy              =    -583.45049106 Ry
     estimated scf accuracy    <       0.00000875 Ry

     iteration # 15     ecut=    60.00 Ry     beta= 0.30
     Davidson diagonalization with overlap
     ethr =  1.51E-08,  avg # of iterations =  6.0

     negative rho (up, down):  4.287E-03 0.000E+00

     total cpu time spent up to now is      866.2 secs

     total energy              =    -583.45045326 Ry
     estimated scf accuracy    <       0.00011746 Ry

     iteration # 16     ecut=    60.00 Ry     beta= 0.30
     Davidson diagonalization with overlap
     ethr =  1.51E-08,  avg # of iterations =  8.0

     negative rho (up, down):  4.287E-03 0.000E+00

     total cpu time spent up to now is      880.0 secs

     total energy              =    -583.45047119 Ry
     estimated scf accuracy    <       0.00012662 Ry

     iteration # 17     ecut=    60.00 Ry     beta= 0.30
     Davidson diagonalization with overlap
     ethr =  1.51E-08,  avg # of iterations =  7.0

     negative rho (up, down):  4.289E-03 0.000E+00

     total cpu time spent up to now is      895.4 secs

     total energy              =    -583.45048921 Ry
     estimated scf accuracy    <       0.00000373 Ry

     iteration # 18     ecut=    60.00 Ry     beta= 0.30
     Davidson diagonalization with overlap
     ethr =  6.43E-09,  avg # of iterations =  2.0

     negative rho (up, down):  4.288E-03 0.000E+00

     total cpu time spent up to now is      906.6 secs

     total energy              =    -583.45048829 Ry
     estimated scf accuracy    <       0.00000390 Ry

     iteration # 19     ecut=    60.00 Ry     beta= 0.30
     Davidson diagonalization with overlap
     ethr =  6.43E-09,  avg # of iterations =  6.0

     negative rho (up, down):  4.288E-03 0.000E+00

     total cpu time spent up to now is      919.9 secs

     total energy              =    -583.45049308 Ry
     estimated scf accuracy    <       0.00002596 Ry

     iteration # 20     ecut=    60.00 Ry     beta= 0.30
     Davidson diagonalization with overlap
     ethr =  6.43E-09,  avg # of iterations =  1.0

     negative rho (up, down):  4.288E-03 0.000E+00

     total cpu time spent up to now is      932.9 secs

     total energy              =    -583.45049159 Ry
     estimated scf accuracy    <       0.00002625 Ry

     iteration # 21     ecut=    60.00 Ry     beta= 0.30
     Davidson diagonalization with overlap
     ethr =  6.43E-09,  avg # of iterations =  1.0

     negative rho (up, down):  4.288E-03 0.000E+00

     total cpu time spent up to now is      943.5 secs

     total energy              =    -583.45048661 Ry
     estimated scf accuracy    <       0.00002165 Ry

     iteration # 22     ecut=    60.00 Ry     beta= 0.30
     Davidson diagonalization with overlap
     ethr =  6.43E-09,  avg # of iterations =  5.0

     negative rho (up, down):  4.288E-03 0.000E+00

     total cpu time spent up to now is      958.5 secs

     total energy              =    -583.45048889 Ry
     estimated scf accuracy    <       0.00000085 Ry

     iteration # 23     ecut=    60.00 Ry     beta= 0.30
     Davidson diagonalization with overlap
     ethr =  1.47E-09,  avg # of iterations =  6.0

     negative rho (up, down):  4.289E-03 0.000E+00

     total cpu time spent up to now is      971.0 secs

     total energy              =    -583.45048959 Ry
     estimated scf accuracy    <       0.00000148 Ry

     iteration # 24     ecut=    60.00 Ry     beta= 0.30
     Davidson diagonalization with overlap
     ethr =  1.47E-09,  avg # of iterations =  3.0

     negative rho (up, down):  4.289E-03 0.000E+00

     total cpu time spent up to now is      982.6 secs

     total energy              =    -583.45048933 Ry
     estimated scf accuracy    <       0.00000257 Ry

     iteration # 25     ecut=    60.00 Ry     beta= 0.30
     Davidson diagonalization with overlap
     ethr =  1.47E-09,  avg # of iterations =  2.0

     negative rho (up, down):  4.289E-03 0.000E+00

     total cpu time spent up to now is      996.2 secs

     total energy              =    -583.45048954 Ry
     estimated scf accuracy    <       0.00000133 Ry

     iteration # 26     ecut=    60.00 Ry     beta= 0.30
     Davidson diagonalization with overlap
     ethr =  1.47E-09,  avg # of iterations =  1.0

     negative rho (up, down):  4.289E-03 0.000E+00

     total cpu time spent up to now is     1006.5 secs

     total energy              =    -583.45048949 Ry
     estimated scf accuracy    <       0.00000154 Ry

     iteration # 27     ecut=    60.00 Ry     beta= 0.30
     Davidson diagonalization with overlap
     ethr =  1.47E-09,  avg # of iterations =  1.0

     negative rho (up, down):  4.289E-03 0.000E+00

     total cpu time spent up to now is     1017.8 secs

     total energy              =    -583.45048970 Ry
     estimated scf accuracy    <       0.00000145 Ry

     iteration # 28     ecut=    60.00 Ry     beta= 0.30
     Davidson diagonalization with overlap
     ethr =  1.47E-09,  avg # of iterations =  1.0

     negative rho (up, down):  4.289E-03 0.000E+00

     total cpu time spent up to now is     1031.2 secs

     total energy              =    -583.45048970 Ry
     estimated scf accuracy    <       0.00000237 Ry

     iteration # 29     ecut=    60.00 Ry     beta= 0.30
     Davidson diagonalization with overlap
     ethr =  1.47E-09,  avg # of iterations =  1.0

     negative rho (up, down):  4.289E-03 0.000E+00

     total cpu time spent up to now is     1041.6 secs

     total energy              =    -583.45048943 Ry
     estimated scf accuracy    <       0.00000250 Ry

     iteration # 30     ecut=    60.00 Ry     beta= 0.30
     Davidson diagonalization with overlap
     ethr =  1.47E-09,  avg # of iterations =  1.0

     negative rho (up, down):  4.289E-03 0.000E+00

     total cpu time spent up to now is     1052.9 secs

     total energy              =    -583.45048910 Ry
     estimated scf accuracy    <       0.00000174 Ry

     iteration # 31     ecut=    60.00 Ry     beta= 0.30
     Davidson diagonalization with overlap
     ethr =  1.47E-09,  avg # of iterations =  5.0

     negative rho (up, down):  4.289E-03 0.000E+00

     total cpu time spent up to now is     1066.6 secs

     total energy              =    -583.45048935 Ry
     estimated scf accuracy    <       0.00000049 Ry

     iteration # 32     ecut=    60.00 Ry     beta= 0.30
     Davidson diagonalization with overlap
     ethr =  8.50E-10,  avg # of iterations =  2.0

     negative rho (up, down):  4.289E-03 0.000E+00

     total cpu time spent up to now is     1077.3 secs

     total energy              =    -583.45048938 Ry
     estimated scf accuracy    <       0.00000038 Ry

     iteration # 33     ecut=    60.00 Ry     beta= 0.30
     Davidson diagonalization with overlap
     ethr =  6.53E-10,  avg # of iterations =  3.0

     negative rho (up, down):  4.289E-03 0.000E+00

     total cpu time spent up to now is     1089.8 secs

     total energy              =    -583.45048942 Ry
     estimated scf accuracy    <       0.00000047 Ry

     iteration # 34     ecut=    60.00 Ry     beta= 0.30
     Davidson diagonalization with overlap
     ethr =  6.53E-10,  avg # of iterations =  1.0

     negative rho (up, down):  4.289E-03 0.000E+00

     total cpu time spent up to now is     1102.5 secs

     total energy              =    -583.45048932 Ry
     estimated scf accuracy    <       0.00000053 Ry

     iteration # 35     ecut=    60.00 Ry     beta= 0.30
     Davidson diagonalization with overlap
     ethr =  6.53E-10,  avg # of iterations =  2.0

     negative rho (up, down):  4.289E-03 0.000E+00

     total cpu time spent up to now is     1114.0 secs

     total energy              =    -583.45048933 Ry
     estimated scf accuracy    <       0.00000013 Ry

     iteration # 36     ecut=    60.00 Ry     beta= 0.30
     Davidson diagonalization with overlap
     ethr =  2.19E-10,  avg # of iterations =  4.0

     negative rho (up, down):  4.289E-03 0.000E+00

     total cpu time spent up to now is     1127.9 secs

     total energy              =    -583.45048936 Ry
     estimated scf accuracy    <       0.00000002 Ry

     iteration # 37     ecut=    60.00 Ry     beta= 0.30
     Davidson diagonalization with overlap
     ethr =  3.73E-11,  avg # of iterations =  2.0

     negative rho (up, down):  4.289E-03 0.000E+00

     total cpu time spent up to now is     1139.6 secs

     total energy              =    -583.45048936 Ry
     estimated scf accuracy    <       0.00000002 Ry

     iteration # 38     ecut=    60.00 Ry     beta= 0.30
     Davidson diagonalization with overlap
     ethr =  2.72E-11,  avg # of iterations =  4.0

     negative rho (up, down):  4.289E-03 0.000E+00

     total cpu time spent up to now is     1151.1 secs

     End of self-consistent calculation

          k = 0.0000 0.0000 0.0000 ( 97224 PWs)   bands (ev):

  -110.3325 -70.7152 -70.7152 -70.7152 -27.7628 -27.7505 -27.7505 -27.7505
   -15.7173 -14.6665 -14.6665 -14.6665 -12.3972 -11.7706 -11.7706 -11.7706
   -11.3352 -11.3352 -11.1975 -11.1975 -11.1975 -10.8685 -10.8685 -10.8685
    -8.7334  -8.7334  -7.4646  -7.4646  -7.4646

     highest occupied level (ev):    -7.4646

!    total energy              =    -583.45048935 Ry
     estimated scf accuracy    <          4.5E-09 Ry

     The total energy is the sum of the following terms:
     one-electron contribution =   -2003.16325804 Ry
     hartree contribution      =    1001.90207428 Ry
     xc contribution           =     -81.95630630 Ry
     ewald contribution        =     562.63475213 Ry
     one-center paw contrib.   =     -62.86775143 Ry

     convergence has been achieved in  38 iterations

     negative rho (up, down):  4.289E-03 0.000E+00

     Forces acting on atoms (cartesian axes, Ry/au):

     atom    1 type  2   force =     0.00000000    0.00000000    0.00000000
     atom    2 type  1   force =     0.17768107    0.17768107    0.17768107
     atom    3 type  3   force =    -0.16583165   -0.16583165   -0.16583165
     atom    4 type  1   force =     0.17768107   -0.17768107   -0.17768107
     atom    5 type  3   force =    -0.16583165    0.16583165    0.16583165
     atom    6 type  1   force =    -0.17768107    0.17768107   -0.17768107
     atom    7 type  3   force =     0.16583165   -0.16583165    0.16583165
     atom    8 type  1   force =    -0.17768107   -0.17768107    0.17768107
     atom    9 type  3   force =     0.16583165    0.16583165   -0.16583165

     Total force =     0.841931     Total SCF correction =     0.000137
     Energy error            =      1.1E-01 Ry
     Gradient error          =      1.8E-01 Ry/Bohr

     number of scf cycles    =   2
     number of bfgs steps    =   1

     energy             old  =    -583.5586351124 Ry
     energy             new  =    -583.4504893541 Ry

     CASE: energy            _new > energy            _old

     new trust radius        =       0.0288991236 bohr
     new conv_thr            =       0.0000000100 Ry


ATOMIC_POSITIONS (angstrom)
Ni               7.7118435500        7.7118435500        7.7118435500
C                8.7641840623        8.7641840623        8.7641840623
O                9.4314458943        9.4314458943        9.4314458943
C                8.7641840623        6.6595030277        6.6595030277
O                9.4314458943        5.9922412057        5.9922412057
C                6.6595030277        8.7641840623        6.6595030277
O                5.9922412057        9.4314458943        5.9922412057
C                6.6595030277        6.6595030277        8.7641840623
O                5.9922412057        5.9922412057        9.4314458943



     Writing config-only to output data dir /mnt/d/Research/Dr.Kulik_MIT/qe/workdirs/ni_co4_initial/ni_co4_initial.save/ :
     XML data file
     NEW-OLD atomic charge density approx. for the potential

     negative rho (up, down):  4.019E-03 0.000E+00

     total cpu time spent up to now is     1165.6 secs

     Self-consistent Calculation

     iteration #  1     ecut=    60.00 Ry     beta= 0.30
     Davidson diagonalization with overlap
     ethr =  1.00E-06,  avg # of iterations = 19.0

     negative rho (up, down):  4.137E-03 0.000E+00

     total cpu time spent up to now is     1187.0 secs

     total energy              =    -583.54921150 Ry
     estimated scf accuracy    <       0.08781110 Ry

     iteration #  2     ecut=    60.00 Ry     beta= 0.30
     Davidson diagonalization with overlap
     ethr =  1.51E-04,  avg # of iterations =  6.0

     negative rho (up, down):  4.250E-03 0.000E+00

     total cpu time spent up to now is     1200.9 secs

     total energy              =    -583.53244178 Ry
     estimated scf accuracy    <       0.47059438 Ry

     iteration #  3     ecut=    60.00 Ry     beta= 0.30
     Davidson diagonalization with overlap
     ethr =  1.51E-04,  avg # of iterations =  6.0

     negative rho (up, down):  4.279E-03 0.000E+00

     total cpu time spent up to now is     1213.3 secs

     total energy              =    -583.56570015 Ry
     estimated scf accuracy    <       0.01251155 Ry

     iteration #  4     ecut=    60.00 Ry     beta= 0.30
     Davidson diagonalization with overlap
     ethr =  2.16E-05,  avg # of iterations =  2.0

     negative rho (up, down):  4.334E-03 0.000E+00

     total cpu time spent up to now is     1226.7 secs

     total energy              =    -583.56747050 Ry
     estimated scf accuracy    <       0.00275860 Ry

     iteration #  5     ecut=    60.00 Ry     beta= 0.30
     Davidson diagonalization with overlap
     ethr =  4.76E-06,  avg # of iterations =  5.0

     negative rho (up, down):  4.359E-03 0.000E+00

     total cpu time spent up to now is     1239.0 secs

     total energy              =    -583.56808708 Ry
     estimated scf accuracy    <       0.00095545 Ry

     iteration #  6     ecut=    60.00 Ry     beta= 0.30
     Davidson diagonalization with overlap
     ethr =  1.65E-06,  avg # of iterations =  4.0

     negative rho (up, down):  4.390E-03 0.000E+00

     total cpu time spent up to now is     1251.5 secs

     total energy              =    -583.56828845 Ry
     estimated scf accuracy    <       0.00015922 Ry

     iteration #  7     ecut=    60.00 Ry     beta= 0.30
     Davidson diagonalization with overlap
     ethr =  2.75E-07,  avg # of iterations =  4.0

     negative rho (up, down):  4.398E-03 0.000E+00

     total cpu time spent up to now is     1265.6 secs

     total energy              =    -583.56831752 Ry
     estimated scf accuracy    <       0.00003923 Ry

     iteration #  8     ecut=    60.00 Ry     beta= 0.30
     Davidson diagonalization with overlap
     ethr =  6.76E-08,  avg # of iterations =  6.0

     negative rho (up, down):  4.400E-03 0.000E+00

     total cpu time spent up to now is     1278.7 secs

     total energy              =    -583.56832650 Ry
     estimated scf accuracy    <       0.00005650 Ry

     iteration #  9     ecut=    60.00 Ry     beta= 0.30
     Davidson diagonalization with overlap
     ethr =  6.76E-08,  avg # of iterations =  5.0

     negative rho (up, down):  4.399E-03 0.000E+00

     total cpu time spent up to now is     1291.2 secs

     total energy              =    -583.56833395 Ry
     estimated scf accuracy    <       0.00001785 Ry

     iteration # 10     ecut=    60.00 Ry     beta= 0.30
     Davidson diagonalization with overlap
     ethr =  3.08E-08,  avg # of iterations =  4.0

     negative rho (up, down):  4.403E-03 0.000E+00

     total cpu time spent up to now is     1305.0 secs

     total energy              =    -583.56833619 Ry
     estimated scf accuracy    <       0.00000152 Ry

     iteration # 11     ecut=    60.00 Ry     beta= 0.30
     Davidson diagonalization with overlap
     ethr =  2.63E-09,  avg # of iterations =  5.0

     negative rho (up, down):  4.406E-03 0.000E+00

     total cpu time spent up to now is     1317.6 secs

     total energy              =    -583.56833692 Ry
     estimated scf accuracy    <       0.00000023 Ry

     iteration # 12     ecut=    60.00 Ry     beta= 0.30
     Davidson diagonalization with overlap
     ethr =  3.89E-10,  avg # of iterations =  5.0

     negative rho (up, down):  4.409E-03 0.000E+00

     total cpu time spent up to now is     1331.6 secs

     total energy              =    -583.56833694 Ry
     estimated scf accuracy    <       0.00000035 Ry

     iteration # 13     ecut=    60.00 Ry     beta= 0.30
     Davidson diagonalization with overlap
     ethr =  3.89E-10,  avg # of iterations =  2.0

     negative rho (up, down):  4.410E-03 0.000E+00

     total cpu time spent up to now is     1343.2 secs

     total energy              =    -583.56833693 Ry
     estimated scf accuracy    <       0.00000023 Ry

     iteration # 14     ecut=    60.00 Ry     beta= 0.30
     Davidson diagonalization with overlap
     ethr =  3.89E-10,  avg # of iterations =  5.0

     negative rho (up, down):  4.411E-03 0.000E+00

     total cpu time spent up to now is     1355.9 secs

     total energy              =    -583.56833697 Ry
     estimated scf accuracy    <       0.00000019 Ry

     iteration # 15     ecut=    60.00 Ry     beta= 0.30
     Davidson diagonalization with overlap
     ethr =  3.22E-10,  avg # of iterations =  5.0

     negative rho (up, down):  4.412E-03 0.000E+00

     total cpu time spent up to now is     1369.4 secs

     total energy              =    -583.56833693 Ry
     estimated scf accuracy    <       0.00000038 Ry

     iteration # 16     ecut=    60.00 Ry     beta= 0.30
     Davidson diagonalization with overlap
     ethr =  3.22E-10,  avg # of iterations =  5.0

     negative rho (up, down):  4.412E-03 0.000E+00

     total cpu time spent up to now is     1382.1 secs

     total energy              =    -583.56833695 Ry
     estimated scf accuracy    <       0.00000022 Ry

     iteration # 17     ecut=    60.00 Ry     beta= 0.30
     Davidson diagonalization with overlap
     ethr =  3.22E-10,  avg # of iterations =  3.0

     negative rho (up, down):  4.413E-03 0.000E+00

     total cpu time spent up to now is     1395.1 secs

     total energy              =    -583.56833698 Ry
     estimated scf accuracy    <       0.00000008 Ry

     iteration # 18     ecut=    60.00 Ry     beta= 0.30
     Davidson diagonalization with overlap
     ethr =  1.38E-10,  avg # of iterations =  1.0

     negative rho (up, down):  4.413E-03 0.000E+00

     total cpu time spent up to now is     1406.9 secs

     total energy              =    -583.56833697 Ry
     estimated scf accuracy    <       0.00000006 Ry

     iteration # 19     ecut=    60.00 Ry     beta= 0.30
     Davidson diagonalization with overlap
     ethr =  1.10E-10,  avg # of iterations =  6.0

     negative rho (up, down):  4.414E-03 0.000E+00

     total cpu time spent up to now is     1419.1 secs

     total energy              =    -583.56833699 Ry
     estimated scf accuracy    <       0.00000018 Ry

     iteration # 20     ecut=    60.00 Ry     beta= 0.30
     Davidson diagonalization with overlap
     ethr =  1.10E-10,  avg # of iterations =  2.0

     negative rho (up, down):  4.414E-03 0.000E+00

     total cpu time spent up to now is     1432.4 secs

     total energy              =    -583.56833699 Ry
     estimated scf accuracy    <       0.00000009 Ry

     iteration # 21     ecut=    60.00 Ry     beta= 0.30
     Davidson diagonalization with overlap
     ethr =  1.10E-10,  avg # of iterations =  2.0

     negative rho (up, down):  4.414E-03 0.000E+00

     total cpu time spent up to now is     1443.7 secs

     total energy              =    -583.56833699 Ry
     estimated scf accuracy    <       0.00000006 Ry

     iteration # 22     ecut=    60.00 Ry     beta= 0.30
     Davidson diagonalization with overlap
     ethr =  9.88E-11,  avg # of iterations =  2.0

     negative rho (up, down):  4.414E-03 0.000E+00

     total cpu time spent up to now is     1455.6 secs

     total energy              =    -583.56833699 Ry
     estimated scf accuracy    <       0.00000003 Ry

     iteration # 23     ecut=    60.00 Ry     beta= 0.30
     Davidson diagonalization with overlap
     ethr =  4.88E-11,  avg # of iterations =  6.0

     negative rho (up, down):  4.414E-03 0.000E+00

     total cpu time spent up to now is     1469.8 secs

     total energy              =    -583.56833700 Ry
     estimated scf accuracy    <       0.00000003 Ry

     iteration # 24     ecut=    60.00 Ry     beta= 0.30
     Davidson diagonalization with overlap
     ethr =  4.54E-11,  avg # of iterations =  1.0

     negative rho (up, down):  4.414E-03 0.000E+00

     total cpu time spent up to now is     1481.2 secs

     total energy              =    -583.56833700 Ry
     estimated scf accuracy    <       0.00000002 Ry

     iteration # 25     ecut=    60.00 Ry     beta= 0.30
     Davidson diagonalization with overlap
     ethr =  3.94E-11,  avg # of iterations =  1.0

     negative rho (up, down):  4.414E-03 0.000E+00

     total cpu time spent up to now is     1492.4 secs

     total energy              =    -583.56833700 Ry
     estimated scf accuracy    <       0.00000002 Ry

     iteration # 26     ecut=    60.00 Ry     beta= 0.30
     Davidson diagonalization with overlap
     ethr =  3.94E-11,  avg # of iterations =  1.0

     negative rho (up, down):  4.414E-03 0.000E+00

     total cpu time spent up to now is     1505.3 secs

     total energy              =    -583.56833700 Ry
     estimated scf accuracy    <       0.00000001 Ry

     iteration # 27     ecut=    60.00 Ry     beta= 0.30
     Davidson diagonalization with overlap
     ethr =  2.55E-11,  avg # of iterations =  1.0

     negative rho (up, down):  4.414E-03 0.000E+00

     total cpu time spent up to now is     1516.1 secs

     total energy              =    -583.56833700 Ry
     estimated scf accuracy    <       0.00000002 Ry

     iteration # 28     ecut=    60.00 Ry     beta= 0.30
     Davidson diagonalization with overlap
     ethr =  2.55E-11,  avg # of iterations =  1.0

     negative rho (up, down):  4.414E-03 0.000E+00

     total cpu time spent up to now is     1529.2 secs

     total energy              =    -583.56833700 Ry
     estimated scf accuracy    <       0.00000002 Ry

     iteration # 29     ecut=    60.00 Ry     beta= 0.30
     Davidson diagonalization with overlap
     ethr =  2.55E-11,  avg # of iterations =  1.0

     negative rho (up, down):  4.414E-03 0.000E+00

     total cpu time spent up to now is     1540.4 secs

     total energy              =    -583.56833700 Ry
     estimated scf accuracy    <       0.00000002 Ry

     iteration # 30     ecut=    60.00 Ry     beta= 0.30
     Davidson diagonalization with overlap
     ethr =  2.55E-11,  avg # of iterations =  1.0

     negative rho (up, down):  4.414E-03 0.000E+00

     total cpu time spent up to now is     1551.8 secs

     total energy              =    -583.56833700 Ry
     estimated scf accuracy    <       0.00000001 Ry

     iteration # 31     ecut=    60.00 Ry     beta= 0.30
     Davidson diagonalization with overlap
     ethr =  2.49E-11,  avg # of iterations =  1.0

     negative rho (up, down):  4.414E-03 0.000E+00

     total cpu time spent up to now is     1564.8 secs

     total energy              =    -583.56833699 Ry
     estimated scf accuracy    <       0.00000001 Ry

     iteration # 32     ecut=    60.00 Ry     beta= 0.30
     Davidson diagonalization with overlap
     ethr =  2.38E-11,  avg # of iterations =  5.0

     negative rho (up, down):  4.414E-03 0.000E+00

     total cpu time spent up to now is     1576.9 secs

     End of self-consistent calculation

          k = 0.0000 0.0000 0.0000 ( 97224 PWs)   bands (ev):

  -109.2086 -69.5942 -69.5942 -69.5942 -28.8999 -28.8917 -28.8917 -28.8917
   -14.9538 -14.2183 -14.2183 -14.2183 -12.3394 -11.7475 -11.7475 -11.7073
   -11.7073 -11.7073 -11.4838 -11.4838 -11.4838 -11.3147 -11.3147 -11.3147
    -7.7854  -7.7854  -6.6775  -6.6775  -6.6775

     highest occupied level (ev):    -6.6775

!    total energy              =    -583.56833699 Ry
     estimated scf accuracy    <          3.9E-09 Ry

     The total energy is the sum of the following terms:
     one-electron contribution =   -2011.09477200 Ry
     hartree contribution      =    1006.44535707 Ry
     xc contribution           =     -82.50015072 Ry
     ewald contribution        =     566.43327775 Ry
     one-center paw contrib.   =     -62.85204909 Ry

     convergence has been achieved in  32 iterations

     negative rho (up, down):  4.414E-03 0.000E+00

     Forces acting on atoms (cartesian axes, Ry/au):

     atom    1 type  2   force =     0.00000000    0.00000000    0.00000000
     atom    2 type  1   force =     0.00903033    0.00903033    0.00903033
     atom    3 type  3   force =    -0.01332058   -0.01332058   -0.01332058
     atom    4 type  1   force =     0.00903033   -0.00903033   -0.00903033
     atom    5 type  3   force =    -0.01332058    0.01332058    0.01332058
     atom    6 type  1   force =    -0.00903033    0.00903033   -0.00903033
     atom    7 type  3   force =     0.01332058   -0.01332058    0.01332058
     atom    8 type  1   force =    -0.00903033   -0.00903033    0.00903033
     atom    9 type  3   force =     0.01332058    0.01332058   -0.01332058

     Total force =     0.055748     Total SCF correction =     0.000159
     Energy error            =      9.7E-03 Ry
     Gradient error          =      1.3E-02 Ry/Bohr

     number of scf cycles    =   3
     number of bfgs steps    =   1

     energy             old  =    -583.5586351124 Ry
     energy             new  =    -583.5683369930 Ry

     CASE: energy            _new < energy            _old

     new trust radius        =       0.0080328777 bohr
     new conv_thr            =       0.0000000100 Ry


ATOMIC_POSITIONS (angstrom)
Ni               7.7118435500        7.7118435500        7.7118435500
C                8.7642041708        8.7642041708        8.7642041708
O                9.4289916846        9.4289916846        9.4289916846
C                8.7642041708        6.6594829192        6.6594829192
O                9.4289916846        5.9946954154        5.9946954154
C                6.6594829192        8.7642041708        6.6594829192
O                5.9946954154        9.4289916846        5.9946954154
C                6.6594829192        6.6594829192        8.7642041708
O                5.9946954154        5.9946954154        9.4289916846



     Writing config-only to output data dir /mnt/d/Research/Dr.Kulik_MIT/qe/workdirs/ni_co4_initial/ni_co4_initial.save/ :
     XML data file
     NEW-OLD atomic charge density approx. for the potential

     negative rho (up, down):  4.413E-03 0.000E+00

     total cpu time spent up to now is     1590.0 secs

     Self-consistent Calculation

     iteration #  1     ecut=    60.00 Ry     beta= 0.30
     Davidson diagonalization with overlap
     ethr =  1.00E-06,  avg # of iterations =  8.0

     negative rho (up, down):  4.417E-03 0.000E+00

     total cpu time spent up to now is     1606.4 secs

     total energy              =    -583.56878421 Ry
     estimated scf accuracy    <       0.00008281 Ry

     iteration #  2     ecut=    60.00 Ry     beta= 0.30
     Davidson diagonalization with overlap
     ethr =  1.43E-07,  avg # of iterations =  5.0

     negative rho (up, down):  4.420E-03 0.000E+00

     total cpu time spent up to now is     1619.5 secs

     total energy              =    -583.56878823 Ry
     estimated scf accuracy    <       0.00004303 Ry

     iteration #  3     ecut=    60.00 Ry     beta= 0.30
     Davidson diagonalization with overlap
     ethr =  7.42E-08,  avg # of iterations =  4.0

     negative rho (up, down):  4.422E-03 0.000E+00

     total cpu time spent up to now is     1633.3 secs

     total energy              =    -583.56879512 Ry
     estimated scf accuracy    <       0.00000781 Ry

     iteration #  4     ecut=    60.00 Ry     beta= 0.30
     Davidson diagonalization with overlap
     ethr =  1.35E-08,  avg # of iterations =  5.0

     negative rho (up, down):  4.424E-03 0.000E+00

     total cpu time spent up to now is     1646.2 secs

     total energy              =    -583.56879775 Ry
     estimated scf accuracy    <       0.00000450 Ry

     iteration #  5     ecut=    60.00 Ry     beta= 0.30
     Davidson diagonalization with overlap
     ethr =  7.76E-09,  avg # of iterations =  1.0

     negative rho (up, down):  4.424E-03 0.000E+00

     total cpu time spent up to now is     1657.3 secs

     total energy              =    -583.56879635 Ry
     estimated scf accuracy    <       0.00000264 Ry

     iteration #  6     ecut=    60.00 Ry     beta= 0.30
     Davidson diagonalization with overlap
     ethr =  4.56E-09,  avg # of iterations =  5.0

     negative rho (up, down):  4.425E-03 0.000E+00

     total cpu time spent up to now is     1672.2 secs

     total energy              =    -583.56879902 Ry
     estimated scf accuracy    <       0.00000882 Ry

     iteration #  7     ecut=    60.00 Ry     beta= 0.30
     Davidson diagonalization with overlap
     ethr =  4.56E-09,  avg # of iterations =  1.0

     negative rho (up, down):  4.425E-03 0.000E+00

     total cpu time spent up to now is     1684.1 secs

     total energy              =    -583.56879433 Ry
     estimated scf accuracy    <       0.00000762 Ry

     iteration #  8     ecut=    60.00 Ry     beta= 0.30
     Davidson diagonalization with overlap
     ethr =  4.56E-09,  avg # of iterations =  6.0

     negative rho (up, down):  4.426E-03 0.000E+00

     total cpu time spent up to now is     1699.0 secs

     total energy              =    -583.56879842 Ry
     estimated scf accuracy    <       0.00001189 Ry

     iteration #  9     ecut=    60.00 Ry     beta= 0.30
     Davidson diagonalization with overlap
     ethr =  4.56E-09,  avg # of iterations =  2.0

     negative rho (up, down):  4.426E-03 0.000E+00

     total cpu time spent up to now is     1710.6 secs

     total energy              =    -583.56879620 Ry
     estimated scf accuracy    <       0.00000795 Ry

     iteration # 10     ecut=    60.00 Ry     beta= 0.30
     Davidson diagonalization with overlap
     ethr =  4.56E-09,  avg # of iterations =  6.0

     negative rho (up, down):  4.426E-03 0.000E+00

     total cpu time spent up to now is     1723.8 secs

     total energy              =    -583.56879766 Ry
     estimated scf accuracy    <       0.00000053 Ry

     iteration # 11     ecut=    60.00 Ry     beta= 0.30
     Davidson diagonalization with overlap
     ethr =  9.14E-10,  avg # of iterations =  4.0

     negative rho (up, down):  4.426E-03 0.000E+00

     total cpu time spent up to now is     1737.5 secs

     total energy              =    -583.56879769 Ry
     estimated scf accuracy    <       0.00000039 Ry

     iteration # 12     ecut=    60.00 Ry     beta= 0.30
     Davidson diagonalization with overlap
     ethr =  6.78E-10,  avg # of iterations =  1.0

     negative rho (up, down):  4.426E-03 0.000E+00

     total cpu time spent up to now is     1748.7 secs

     total energy              =    -583.56879760 Ry
     estimated scf accuracy    <       0.00000026 Ry

     iteration # 13     ecut=    60.00 Ry     beta= 0.30
     Davidson diagonalization with overlap
     ethr =  4.54E-10,  avg # of iterations =  7.0

     negative rho (up, down):  4.426E-03 0.000E+00

     total cpu time spent up to now is     1762.4 secs

     total energy              =    -583.56879739 Ry
     estimated scf accuracy    <       0.00000270 Ry

     iteration # 14     ecut=    60.00 Ry     beta= 0.30
     Davidson diagonalization with overlap
     ethr =  4.54E-10,  avg # of iterations =  6.0

     negative rho (up, down):  4.426E-03 0.000E+00

     total cpu time spent up to now is     1777.3 secs

     total energy              =    -583.56879772 Ry
     estimated scf accuracy    <       0.00000003 Ry

     iteration # 15     ecut=    60.00 Ry     beta= 0.30
     Davidson diagonalization with overlap
     ethr =  5.18E-11,  avg # of iterations =  4.0

     negative rho (up, down):  4.426E-03 0.000E+00

     total cpu time spent up to now is     1789.1 secs

     total energy              =    -583.56879772 Ry
     estimated scf accuracy    <       0.00000001 Ry

     iteration # 16     ecut=    60.00 Ry     beta= 0.30
     Davidson diagonalization with overlap
     ethr =  2.19E-11,  avg # of iterations =  6.0

     negative rho (up, down):  4.426E-03 0.000E+00

     total cpu time spent up to now is     1804.5 secs

     total energy              =    -583.56879771 Ry
     estimated scf accuracy    <       0.00000004 Ry

     iteration # 17     ecut=    60.00 Ry     beta= 0.30
     Davidson diagonalization with overlap
     ethr =  2.19E-11,  avg # of iterations =  6.0

     negative rho (up, down):  4.426E-03 0.000E+00

     total cpu time spent up to now is     1816.6 secs

     End of self-consistent calculation

          k = 0.0000 0.0000 0.0000 ( 97224 PWs)   bands (ev):

  -109.1715 -69.5574 -69.5574 -69.5574 -28.9562 -28.9480 -28.9480 -28.9480
   -14.9280 -14.2019 -14.2019 -14.2019 -12.3397 -11.7755 -11.7755 -11.7360
   -11.7360 -11.7360 -11.5151 -11.5151 -11.5151 -11.3021 -11.3021 -11.3021
    -7.7528  -7.7528  -6.6466  -6.6466  -6.6466

     highest occupied level (ev):    -6.6466

!    total energy              =    -583.56879772 Ry
     estimated scf accuracy    <          5.3E-09 Ry

     The total energy is the sum of the following terms:
     one-electron contribution =   -2012.42734301 Ry
     hartree contribution      =    1007.12658692 Ry
     xc contribution           =     -82.53318764 Ry
     ewald contribution        =     567.11668635 Ry
     one-center paw contrib.   =     -62.85154034 Ry

     convergence has been achieved in  17 iterations

     negative rho (up, down):  4.426E-03 0.000E+00

     Forces acting on atoms (cartesian axes, Ry/au):

     atom    1 type  2   force =     0.00000000    0.00000000    0.00000000
     atom    2 type  1   force =    -0.00099362   -0.00099362   -0.00099362
     atom    3 type  3   force =    -0.00312285   -0.00312285   -0.00312285
     atom    4 type  1   force =    -0.00099362    0.00099362    0.00099362
     atom    5 type  3   force =    -0.00312285    0.00312285    0.00312285
     atom    6 type  1   force =     0.00099362   -0.00099362    0.00099362
     atom    7 type  3   force =     0.00312285   -0.00312285    0.00312285
     atom    8 type  1   force =     0.00099362    0.00099362   -0.00099362
     atom    9 type  3   force =     0.00312285    0.00312285   -0.00312285

     Total force =     0.011352     Total SCF correction =     0.000065
     Energy error            =      4.6E-04 Ry
     Gradient error          =      3.1E-03 Ry/Bohr

     number of scf cycles    =   4
     number of bfgs steps    =   2

     energy             old  =    -583.5683369930 Ry
     energy             new  =    -583.5687977156 Ry

     CASE: energy            _new < energy            _old

     new trust radius        =       0.0064986625 bohr
     new conv_thr            =       0.0000000031 Ry


ATOMIC_POSITIONS (angstrom)
Ni               7.7118435500        7.7118435500        7.7118435500
C                8.7629468636        8.7629468636        8.7629468636
O                9.4270062093        9.4270062093        9.4270062093
C                8.7629468636        6.6607402264        6.6607402264
O                9.4270062093        5.9966808907        5.9966808907
C                6.6607402264        8.7629468636        6.6607402264
O                5.9966808907        9.4270062093        5.9966808907
C                6.6607402264        6.6607402264        8.7629468636
O                5.9966808907        5.9966808907        9.4270062093



     Writing config-only to output data dir /mnt/d/Research/Dr.Kulik_MIT/qe/workdirs/ni_co4_initial/ni_co4_initial.save/ :
     XML data file
     NEW-OLD atomic charge density approx. for the potential

     negative rho (up, down):  4.424E-03 0.000E+00

     total cpu time spent up to now is     1830.2 secs

     Self-consistent Calculation

     iteration #  1     ecut=    60.00 Ry     beta= 0.30
     Davidson diagonalization with overlap
     ethr =  1.00E-06,  avg # of iterations =  7.0

     Threshold (ethr) on eigenvalues was too large:
     Diagonalizing with lowered threshold

     Davidson diagonalization with overlap
     ethr =  5.66E-08,  avg # of iterations =  4.0

     negative rho (up, down):  4.424E-03 0.000E+00

     total cpu time spent up to now is     1853.2 secs

     total energy              =    -583.56893069 Ry
     estimated scf accuracy    <       0.00003475 Ry

     iteration #  2     ecut=    60.00 Ry     beta= 0.30
     Davidson diagonalization with overlap
     ethr =  5.99E-08,  avg # of iterations =  1.0

     negative rho (up, down):  4.424E-03 0.000E+00

     total cpu time spent up to now is     1864.6 secs

     total energy              =    -583.56892614 Ry
     estimated scf accuracy    <       0.00001276 Ry

     iteration #  3     ecut=    60.00 Ry     beta= 0.30
     Davidson diagonalization with overlap
     ethr =  2.20E-08,  avg # of iterations =  3.0

     negative rho (up, down):  4.425E-03 0.000E+00

     total cpu time spent up to now is     1878.7 secs

     total energy              =    -583.56892891 Ry
     estimated scf accuracy    <       0.00000491 Ry

     iteration #  4     ecut=    60.00 Ry     beta= 0.30
     Davidson diagonalization with overlap
     ethr =  8.46E-09,  avg # of iterations =  1.0

     negative rho (up, down):  4.425E-03 0.000E+00

     total cpu time spent up to now is     1890.1 secs

     total energy              =    -583.56892720 Ry
     estimated scf accuracy    <       0.00000285 Ry

     iteration #  5     ecut=    60.00 Ry     beta= 0.30
     Davidson diagonalization with overlap
     ethr =  4.91E-09,  avg # of iterations =  8.0

     negative rho (up, down):  4.426E-03 0.000E+00

     total cpu time spent up to now is     1905.9 secs

     total energy              =    -583.56893507 Ry
     estimated scf accuracy    <       0.00006932 Ry

     iteration #  6     ecut=    60.00 Ry     beta= 0.30
     Davidson diagonalization with overlap
     ethr =  4.91E-09,  avg # of iterations =  1.0

     negative rho (up, down):  4.426E-03 0.000E+00

     total cpu time spent up to now is     1916.9 secs

     total energy              =    -583.56894332 Ry
     estimated scf accuracy    <       0.00006854 Ry

     iteration #  7     ecut=    60.00 Ry     beta= 0.30
     Davidson diagonalization with overlap
     ethr =  4.91E-09,  avg # of iterations =  6.0

     negative rho (up, down):  4.426E-03 0.000E+00

     total cpu time spent up to now is     1930.0 secs

     total energy              =    -583.56893795 Ry
     estimated scf accuracy    <       0.00018082 Ry

     iteration #  8     ecut=    60.00 Ry     beta= 0.30
     Davidson diagonalization with overlap
     ethr =  4.91E-09,  avg # of iterations =  5.0

     negative rho (up, down):  4.426E-03 0.000E+00

     total cpu time spent up to now is     1944.6 secs

     total energy              =    -583.56891135 Ry
     estimated scf accuracy    <       0.00011538 Ry

     iteration #  9     ecut=    60.00 Ry     beta= 0.30
     Davidson diagonalization with overlap
     ethr =  4.91E-09,  avg # of iterations = 11.0

     negative rho (up, down):  4.426E-03 0.000E+00

     total cpu time spent up to now is     1958.7 secs

     total energy              =    -583.56893241 Ry
     estimated scf accuracy    <       0.00003919 Ry

     iteration # 10     ecut=    60.00 Ry     beta= 0.30
     Davidson diagonalization with overlap
     ethr =  4.91E-09,  avg # of iterations =  1.0

     negative rho (up, down):  4.426E-03 0.000E+00

     total cpu time spent up to now is     1972.0 secs

     total energy              =    -583.56892836 Ry
     estimated scf accuracy    <       0.00004084 Ry

     iteration # 11     ecut=    60.00 Ry     beta= 0.30
     Davidson diagonalization with overlap
     ethr =  4.91E-09,  avg # of iterations =  5.0

     negative rho (up, down):  4.426E-03 0.000E+00

     total cpu time spent up to now is     1984.4 secs

     total energy              =    -583.56893120 Ry
     estimated scf accuracy    <       0.00002307 Ry

     iteration # 12     ecut=    60.00 Ry     beta= 0.30
     Davidson diagonalization with overlap
     ethr =  4.91E-09,  avg # of iterations =  2.0

     negative rho (up, down):  4.426E-03 0.000E+00

     total cpu time spent up to now is     1996.1 secs

     total energy              =    -583.56892816 Ry
     estimated scf accuracy    <       0.00002536 Ry

     iteration # 13     ecut=    60.00 Ry     beta= 0.30
     Davidson diagonalization with overlap
     ethr =  4.91E-09,  avg # of iterations =  6.0

     negative rho (up, down):  4.427E-03 0.000E+00

     total cpu time spent up to now is     2011.1 secs

     total energy              =    -583.56892786 Ry
     estimated scf accuracy    <       0.00000448 Ry

     iteration # 14     ecut=    60.00 Ry     beta= 0.30
     Davidson diagonalization with overlap
     ethr =  4.91E-09,  avg # of iterations =  4.0

     negative rho (up, down):  4.427E-03 0.000E+00

     total cpu time spent up to now is     2022.7 secs

     total energy              =    -583.56892852 Ry
     estimated scf accuracy    <       0.00000037 Ry

     iteration # 15     ecut=    60.00 Ry     beta= 0.30
     Davidson diagonalization with overlap
     ethr =  6.39E-10,  avg # of iterations =  5.0

     negative rho (up, down):  4.427E-03 0.000E+00

     total cpu time spent up to now is     2034.9 secs

     total energy              =    -583.56892864 Ry
     estimated scf accuracy    <       0.00000011 Ry

     iteration # 16     ecut=    60.00 Ry     beta= 0.30
     Davidson diagonalization with overlap
     ethr =  1.84E-10,  avg # of iterations =  4.0

     negative rho (up, down):  4.427E-03 0.000E+00

     total cpu time spent up to now is     2049.3 secs

     total energy              =    -583.56892859 Ry
     estimated scf accuracy    <       0.00000023 Ry

     iteration # 17     ecut=    60.00 Ry     beta= 0.30
     Davidson diagonalization with overlap
     ethr =  1.84E-10,  avg # of iterations =  3.0

     negative rho (up, down):  4.427E-03 0.000E+00

     total cpu time spent up to now is     2061.0 secs

     total energy              =    -583.56892863 Ry
     estimated scf accuracy    <       0.00000001 Ry

     iteration # 18     ecut=    60.00 Ry     beta= 0.30
     Davidson diagonalization with overlap
     ethr =  2.00E-11,  avg # of iterations =  5.0

     negative rho (up, down):  4.427E-03 0.000E+00

     total cpu time spent up to now is     2076.0 secs

     total energy              =    -583.56892863 Ry
     estimated scf accuracy    <       0.00000005 Ry

     iteration # 19     ecut=    60.00 Ry     beta= 0.30
     Davidson diagonalization with overlap
     ethr =  2.00E-11,  avg # of iterations =  3.0

     negative rho (up, down):  4.427E-03 0.000E+00

     total cpu time spent up to now is     2087.5 secs

     total energy              =    -583.56892863 Ry
     estimated scf accuracy    <       0.00000002 Ry

     iteration # 20     ecut=    60.00 Ry     beta= 0.30
     Davidson diagonalization with overlap
     ethr =  2.00E-11,  avg # of iterations =  4.0

     negative rho (up, down):  4.427E-03 0.000E+00

     total cpu time spent up to now is     2099.1 secs

     End of self-consistent calculation

          k = 0.0000 0.0000 0.0000 ( 97224 PWs)   bands (ev):

  -109.1781 -69.5640 -69.5640 -69.5640 -28.9719 -28.9637 -28.9637 -28.9637
   -14.9286 -14.1985 -14.1985 -14.1985 -12.3451 -11.7858 -11.7858 -11.7456
   -11.7456 -11.7456 -11.5235 -11.5235 -11.5235 -11.3088 -11.3088 -11.3088
    -7.7597  -7.7597  -6.6471  -6.6471  -6.6471

     highest occupied level (ev):    -6.6471

!    total energy              =    -583.56892862 Ry
     estimated scf accuracy    <          8.4E-10 Ry

     The total energy is the sum of the following terms:
     one-electron contribution =   -2013.71022680 Ry
     hartree contribution      =    1007.76314263 Ry
     xc contribution           =     -82.54699829 Ry
     ewald contribution        =     567.77652338 Ry
     one-center paw contrib.   =     -62.85136954 Ry

     convergence has been achieved in  20 iterations

     negative rho (up, down):  4.427E-03 0.000E+00

     Forces acting on atoms (cartesian axes, Ry/au):

     atom    1 type  2   force =     0.00000000    0.00000000    0.00000000
     atom    2 type  1   force =    -0.00329147   -0.00329147   -0.00329147
     atom    3 type  3   force =     0.00003422    0.00003422    0.00003422
     atom    4 type  1   force =    -0.00329147    0.00329147    0.00329147
     atom    5 type  3   force =     0.00003422   -0.00003422   -0.00003422
     atom    6 type  1   force =     0.00329147   -0.00329147    0.00329147
     atom    7 type  3   force =    -0.00003422    0.00003422   -0.00003422
     atom    8 type  1   force =     0.00329147    0.00329147   -0.00329147
     atom    9 type  3   force =    -0.00003422   -0.00003422    0.00003422

     Total force =     0.011403     Total SCF correction =     0.000069
     Energy error            =      1.3E-04 Ry
     Gradient error          =      3.3E-03 Ry/Bohr

     number of scf cycles    =   5
     number of bfgs steps    =   3

     energy             old  =    -583.5687977156 Ry
     energy             new  =    -583.5689286234 Ry

     CASE: energy            _new < energy            _old

     new trust radius        =       0.0071485288 bohr
     new conv_thr            =       0.0000000013 Ry


ATOMIC_POSITIONS (angstrom)
Ni               7.7118435500        7.7118435500        7.7118435500
C                8.7610335946        8.7610335946        8.7610335946
O                9.4248221865        9.4248221865        9.4248221865
C                8.7610335946        6.6626534954        6.6626534954
O                9.4248221865        5.9988649135        5.9988649135
C                6.6626534954        8.7610335946        6.6626534954
O                5.9988649135        9.4248221865        5.9988649135
C                6.6626534954        6.6626534954        8.7610335946
O                5.9988649135        5.9988649135        9.4248221865



     Writing config-only to output data dir /mnt/d/Research/Dr.Kulik_MIT/qe/workdirs/ni_co4_initial/ni_co4_initial.save/ :
     XML data file
     NEW-OLD atomic charge density approx. for the potential

     negative rho (up, down):  4.423E-03 0.000E+00

     total cpu time spent up to now is     2114.3 secs

     Self-consistent Calculation

     iteration #  1     ecut=    60.00 Ry     beta= 0.30
     Davidson diagonalization with overlap
     ethr =  1.00E-06,  avg # of iterations =  8.0

     Threshold (ethr) on eigenvalues was too large:
     Diagonalizing with lowered threshold

     Davidson diagonalization with overlap
     ethr =  9.35E-08,  avg # of iterations =  6.0

     negative rho (up, down):  4.422E-03 0.000E+00

     total cpu time spent up to now is     2136.1 secs

     total energy              =    -583.56903520 Ry
     estimated scf accuracy    <       0.00005638 Ry

     iteration #  2     ecut=    60.00 Ry     beta= 0.30
     Davidson diagonalization with overlap
     ethr =  9.72E-08,  avg # of iterations =  5.0

     negative rho (up, down):  4.422E-03 0.000E+00

     total cpu time spent up to now is     2150.4 secs

     total energy              =    -583.56903585 Ry
     estimated scf accuracy    <       0.00005089 Ry

     iteration #  3     ecut=    60.00 Ry     beta= 0.30
     Davidson diagonalization with overlap
     ethr =  8.77E-08,  avg # of iterations =  5.0

     negative rho (up, down):  4.421E-03 0.000E+00

     total cpu time spent up to now is     2162.1 secs

     total energy              =    -583.56903755 Ry
     estimated scf accuracy    <       0.00001104 Ry

     iteration #  4     ecut=    60.00 Ry     beta= 0.30
     Davidson diagonalization with overlap
     ethr =  1.90E-08,  avg # of iterations =  5.0

     negative rho (up, down):  4.422E-03 0.000E+00

     total cpu time spent up to now is     2176.7 secs

     total energy              =    -583.56904333 Ry
     estimated scf accuracy    <       0.00003142 Ry

     iteration #  5     ecut=    60.00 Ry     beta= 0.30
     Davidson diagonalization with overlap
     ethr =  1.90E-08,  avg # of iterations =  1.0

     negative rho (up, down):  4.422E-03 0.000E+00

     total cpu time spent up to now is     2187.6 secs

     total energy              =    -583.56903977 Ry
     estimated scf accuracy    <       0.00003470 Ry

     iteration #  6     ecut=    60.00 Ry     beta= 0.30
     Davidson diagonalization with overlap
     ethr =  1.90E-08,  avg # of iterations =  5.0

     negative rho (up, down):  4.423E-03 0.000E+00

     total cpu time spent up to now is     2199.2 secs

     total energy              =    -583.56903569 Ry
     estimated scf accuracy    <       0.00001105 Ry

     iteration #  7     ecut=    60.00 Ry     beta= 0.30
     Davidson diagonalization with overlap
     ethr =  1.90E-08,  avg # of iterations =  7.0

     negative rho (up, down):  4.423E-03 0.000E+00

     total cpu time spent up to now is     2214.6 secs

     total energy              =    -583.56904081 Ry
     estimated scf accuracy    <       0.00003683 Ry

     iteration #  8     ecut=    60.00 Ry     beta= 0.30
     Davidson diagonalization with overlap
     ethr =  1.90E-08,  avg # of iterations =  1.0

     negative rho (up, down):  4.423E-03 0.000E+00

     total cpu time spent up to now is     2226.0 secs

     total energy              =    -583.56904067 Ry
     estimated scf accuracy    <       0.00003144 Ry

     iteration #  9     ecut=    60.00 Ry     beta= 0.30
     Davidson diagonalization with overlap
     ethr =  1.90E-08,  avg # of iterations =  1.0

     negative rho (up, down):  4.423E-03 0.000E+00

     total cpu time spent up to now is     2237.1 secs

     total energy              =    -583.56904008 Ry
     estimated scf accuracy    <       0.00002989 Ry

     iteration # 10     ecut=    60.00 Ry     beta= 0.30
     Davidson diagonalization with overlap
     ethr =  1.90E-08,  avg # of iterations =  1.0

     negative rho (up, down):  4.423E-03 0.000E+00

     total cpu time spent up to now is     2250.8 secs

     total energy              =    -583.56903344 Ry
     estimated scf accuracy    <       0.00002538 Ry

     iteration # 11     ecut=    60.00 Ry     beta= 0.30
     Davidson diagonalization with overlap
     ethr =  1.90E-08,  avg # of iterations =  8.0

     negative rho (up, down):  4.423E-03 0.000E+00

     total cpu time spent up to now is     2263.3 secs

     total energy              =    -583.56903960 Ry
     estimated scf accuracy    <       0.00003440 Ry

     iteration # 12     ecut=    60.00 Ry     beta= 0.30
     Davidson diagonalization with overlap
     ethr =  1.90E-08,  avg # of iterations =  2.0

     negative rho (up, down):  4.423E-03 0.000E+00

     total cpu time spent up to now is     2276.8 secs

     total energy              =    -583.56903950 Ry
     estimated scf accuracy    <       0.00002318 Ry

     iteration # 13     ecut=    60.00 Ry     beta= 0.30
     Davidson diagonalization with overlap
     ethr =  1.90E-08,  avg # of iterations =  1.0

     negative rho (up, down):  4.423E-03 0.000E+00

     total cpu time spent up to now is     2287.7 secs

     total energy              =    -583.56904045 Ry
     estimated scf accuracy    <       0.00001932 Ry

     iteration # 14     ecut=    60.00 Ry     beta= 0.30
     Davidson diagonalization with overlap
     ethr =  1.90E-08,  avg # of iterations =  1.0

     negative rho (up, down):  4.423E-03 0.000E+00

     total cpu time spent up to now is     2298.8 secs

     total energy              =    -583.56904103 Ry
     estimated scf accuracy    <       0.00002006 Ry

     iteration # 15     ecut=    60.00 Ry     beta= 0.30
     Davidson diagonalization with overlap
     ethr =  1.90E-08,  avg # of iterations =  1.0

     negative rho (up, down):  4.423E-03 0.000E+00

     total cpu time spent up to now is     2312.0 secs

     total energy              =    -583.56904151 Ry
     estimated scf accuracy    <       0.00002264 Ry

     iteration # 16     ecut=    60.00 Ry     beta= 0.30
     Davidson diagonalization with overlap
     ethr =  1.90E-08,  avg # of iterations =  1.0

     negative rho (up, down):  4.423E-03 0.000E+00

     total cpu time spent up to now is     2323.5 secs

     total energy              =    -583.56904116 Ry
     estimated scf accuracy    <       0.00002431 Ry

     iteration # 17     ecut=    60.00 Ry     beta= 0.30
     Davidson diagonalization with overlap
     ethr =  1.90E-08,  avg # of iterations =  1.0

     negative rho (up, down):  4.423E-03 0.000E+00

     total cpu time spent up to now is     2334.4 secs

     total energy              =    -583.56903859 Ry
     estimated scf accuracy    <       0.00002380 Ry

     iteration # 18     ecut=    60.00 Ry     beta= 0.30
     Davidson diagonalization with overlap
     ethr =  1.90E-08,  avg # of iterations =  2.0

     negative rho (up, down):  4.423E-03 0.000E+00

     total cpu time spent up to now is     2347.5 secs

     total energy              =    -583.56903923 Ry
     estimated scf accuracy    <       0.00000868 Ry

     iteration # 19     ecut=    60.00 Ry     beta= 0.30
     Davidson diagonalization with overlap
     ethr =  1.50E-08,  avg # of iterations =  1.0

     negative rho (up, down):  4.423E-03 0.000E+00

     total cpu time spent up to now is     2358.4 secs

     total energy              =    -583.56903793 Ry
     estimated scf accuracy    <       0.00000819 Ry

     iteration # 20     ecut=    60.00 Ry     beta= 0.30
     Davidson diagonalization with overlap
     ethr =  1.41E-08,  avg # of iterations =  5.0

     negative rho (up, down):  4.423E-03 0.000E+00

     total cpu time spent up to now is     2370.5 secs

     total energy              =    -583.56903906 Ry
     estimated scf accuracy    <       0.00000072 Ry

     iteration # 21     ecut=    60.00 Ry     beta= 0.30
     Davidson diagonalization with overlap
     ethr =  1.24E-09,  avg # of iterations =  6.0

     negative rho (up, down):  4.423E-03 0.000E+00

     total cpu time spent up to now is     2384.9 secs

     total energy              =    -583.56903956 Ry
     estimated scf accuracy    <       0.00000094 Ry

     iteration # 22     ecut=    60.00 Ry     beta= 0.30
     Davidson diagonalization with overlap
     ethr =  1.24E-09,  avg # of iterations =  5.0

     negative rho (up, down):  4.423E-03 0.000E+00

     total cpu time spent up to now is     2397.5 secs

     total energy              =    -583.56903906 Ry
     estimated scf accuracy    <       0.00000566 Ry

     iteration # 23     ecut=    60.00 Ry     beta= 0.30
     Davidson diagonalization with overlap
     ethr =  1.24E-09,  avg # of iterations =  6.0

     negative rho (up, down):  4.423E-03 0.000E+00

     total cpu time spent up to now is     2410.0 secs

     total energy              =    -583.56903915 Ry
     estimated scf accuracy    <       0.00000063 Ry

     iteration # 24     ecut=    60.00 Ry     beta= 0.30
     Davidson diagonalization with overlap
     ethr =  1.09E-09,  avg # of iterations =  2.0

     negative rho (up, down):  4.423E-03 0.000E+00

     total cpu time spent up to now is     2423.2 secs

     total energy              =    -583.56903914 Ry
     estimated scf accuracy    <       0.00000023 Ry

     iteration # 25     ecut=    60.00 Ry     beta= 0.30
     Davidson diagonalization with overlap
     ethr =  3.94E-10,  avg # of iterations =  5.0

     negative rho (up, down):  4.423E-03 0.000E+00

     total cpu time spent up to now is     2436.1 secs

     total energy              =    -583.56903919 Ry
     estimated scf accuracy    <       0.00000012 Ry

     iteration # 26     ecut=    60.00 Ry     beta= 0.30
     Davidson diagonalization with overlap
     ethr =  2.00E-10,  avg # of iterations =  3.0

     negative rho (up, down):  4.423E-03 0.000E+00

     total cpu time spent up to now is     2449.5 secs

     total energy              =    -583.56903920 Ry
     estimated scf accuracy    <       0.00000001 Ry

     iteration # 27     ecut=    60.00 Ry     beta= 0.30
     Davidson diagonalization with overlap
     ethr =  2.38E-11,  avg # of iterations =  7.0

     negative rho (up, down):  4.423E-03 0.000E+00

     total cpu time spent up to now is     2463.6 secs

     total energy              =    -583.56903918 Ry
     estimated scf accuracy    <       0.00000028 Ry

     iteration # 28     ecut=    60.00 Ry     beta= 0.30
     Davidson diagonalization with overlap
     ethr =  2.38E-11,  avg # of iterations =  7.0

     negative rho (up, down):  4.423E-03 0.000E+00

     total cpu time spent up to now is     2477.0 secs

     End of self-consistent calculation

          k = 0.0000 0.0000 0.0000 ( 97224 PWs)   bands (ev):

  -109.2002 -69.5863 -69.5863 -69.5863 -28.9768 -28.9684 -28.9684 -28.9684
   -14.9384 -14.1988 -14.1988 -14.1988 -12.3531 -11.7918 -11.7918 -11.7502
   -11.7502 -11.7502 -11.5255 -11.5255 -11.5255 -11.3233 -11.3233 -11.3233
    -7.7810  -7.7810  -6.6582  -6.6582  -6.6582

     highest occupied level (ev):    -6.6582

!    total energy              =    -583.56903921 Ry
     estimated scf accuracy    <          7.6E-10 Ry

     The total energy is the sum of the following terms:
     one-electron contribution =   -2015.20611724 Ry
     hartree contribution      =    1008.49670658 Ry
     xc contribution           =     -82.55646159 Ry
     ewald contribution        =     568.54811786 Ry
     one-center paw contrib.   =     -62.85128482 Ry

     convergence has been achieved in  28 iterations

     negative rho (up, down):  4.423E-03 0.000E+00

     Forces acting on atoms (cartesian axes, Ry/au):

     atom    1 type  2   force =     0.00000000    0.00000000    0.00000000
     atom    2 type  1   force =    -0.00333253   -0.00333253   -0.00333253
     atom    3 type  3   force =     0.00131734    0.00131734    0.00131734
     atom    4 type  1   force =    -0.00333253    0.00333253    0.00333253
     atom    5 type  3   force =     0.00131734   -0.00131734   -0.00131734
     atom    6 type  1   force =     0.00333253   -0.00333253    0.00333253
     atom    7 type  3   force =    -0.00131734    0.00131734   -0.00131734
     atom    8 type  1   force =     0.00333253    0.00333253   -0.00333253
     atom    9 type  3   force =    -0.00131734   -0.00131734    0.00131734

     Total force =     0.012413     Total SCF correction =     0.000046
     Energy error            =      1.1E-04 Ry
     Gradient error          =      3.3E-03 Ry/Bohr

     number of scf cycles    =   6
     number of bfgs steps    =   4

     energy             old  =    -583.5689286234 Ry
     energy             new  =    -583.5690392091 Ry

     CASE: energy            _new < energy            _old

     new trust radius        =       0.0095625866 bohr
     new conv_thr            =       0.0000000011 Ry


ATOMIC_POSITIONS (angstrom)
Ni               7.7118435500        7.7118435500        7.7118435500
C                8.7581120274        8.7581120274        8.7581120274
O                9.4220018110        9.4220018110        9.4220018110
C                8.7581120274        6.6655750626        6.6655750626
O                9.4220018110        6.0016852890        6.0016852890
C                6.6655750626        8.7581120274        6.6655750626
O                6.0016852890        9.4220018110        6.0016852890
C                6.6655750626        6.6655750626        8.7581120274
O                6.0016852890        6.0016852890        9.4220018110



     Writing config-only to output data dir /mnt/d/Research/Dr.Kulik_MIT/qe/workdirs/ni_co4_initial/ni_co4_initial.save/ :
     XML data file
     NEW-OLD atomic charge density approx. for the potential

     negative rho (up, down):  4.417E-03 0.000E+00

     total cpu time spent up to now is     2491.5 secs

     Self-consistent Calculation

     iteration #  1     ecut=    60.00 Ry     beta= 0.30
     Davidson diagonalization with overlap
     ethr =  1.00E-06,  avg # of iterations =  9.0

     negative rho (up, down):  4.414E-03 0.000E+00

     total cpu time spent up to now is     2506.6 secs

     total energy              =    -583.56907154 Ry
     estimated scf accuracy    <       0.00011447 Ry

     iteration #  2     ecut=    60.00 Ry     beta= 0.30
     Davidson diagonalization with overlap
     ethr =  1.97E-07,  avg # of iterations =  5.0

     negative rho (up, down):  4.415E-03 0.000E+00

     total cpu time spent up to now is     2521.3 secs

     total energy              =    -583.56910131 Ry
     estimated scf accuracy    <       0.00022697 Ry

     iteration #  3     ecut=    60.00 Ry     beta= 0.30
     Davidson diagonalization with overlap
     ethr =  1.97E-07,  avg # of iterations =  5.0

     negative rho (up, down):  4.413E-03 0.000E+00

     total cpu time spent up to now is     2533.4 secs

     total energy              =    -583.56910653 Ry
     estimated scf accuracy    <       0.00004020 Ry

     iteration #  4     ecut=    60.00 Ry     beta= 0.30
     Davidson diagonalization with overlap
     ethr =  6.93E-08,  avg # of iterations =  4.0

     negative rho (up, down):  4.414E-03 0.000E+00

     total cpu time spent up to now is     2545.2 secs

     total energy              =    -583.56911349 Ry
     estimated scf accuracy    <       0.00001189 Ry

     iteration #  5     ecut=    60.00 Ry     beta= 0.30
     Davidson diagonalization with overlap
     ethr =  2.05E-08,  avg # of iterations =  5.0

     negative rho (up, down):  4.415E-03 0.000E+00

     total cpu time spent up to now is     2560.2 secs

     total energy              =    -583.56910535 Ry
     estimated scf accuracy    <       0.00002403 Ry

     iteration #  6     ecut=    60.00 Ry     beta= 0.30
     Davidson diagonalization with overlap
     ethr =  2.05E-08,  avg # of iterations =  5.0

     negative rho (up, down):  4.415E-03 0.000E+00

     total cpu time spent up to now is     2572.8 secs

     total energy              =    -583.56911223 Ry
     estimated scf accuracy    <       0.00001185 Ry

     iteration #  7     ecut=    60.00 Ry     beta= 0.30
     Davidson diagonalization with overlap
     ethr =  2.04E-08,  avg # of iterations =  2.0

     negative rho (up, down):  4.414E-03 0.000E+00

     total cpu time spent up to now is     2585.9 secs

     total energy              =    -583.56911121 Ry
     estimated scf accuracy    <       0.00000640 Ry

     iteration #  8     ecut=    60.00 Ry     beta= 0.30
     Davidson diagonalization with overlap
     ethr =  1.10E-08,  avg # of iterations =  5.0

     negative rho (up, down):  4.415E-03 0.000E+00

     total cpu time spent up to now is     2597.9 secs

     total energy              =    -583.56911195 Ry
     estimated scf accuracy    <       0.00000369 Ry

     iteration #  9     ecut=    60.00 Ry     beta= 0.30
     Davidson diagonalization with overlap
     ethr =  6.36E-09,  avg # of iterations =  5.0

     negative rho (up, down):  4.415E-03 0.000E+00

     total cpu time spent up to now is     2609.5 secs

     total energy              =    -583.56911246 Ry
     estimated scf accuracy    <       0.00000002 Ry

     iteration # 10     ecut=    60.00 Ry     beta= 0.30
     Davidson diagonalization with overlap
     ethr =  3.71E-11,  avg # of iterations =  8.0

     negative rho (up, down):  4.415E-03 0.000E+00

     total cpu time spent up to now is     2626.0 secs

     total energy              =    -583.56911236 Ry
     estimated scf accuracy    <       0.00000200 Ry

     iteration # 11     ecut=    60.00 Ry     beta= 0.30
     Davidson diagonalization with overlap
     ethr =  3.71E-11,  avg # of iterations = 10.0

     negative rho (up, down):  4.415E-03 0.000E+00

     total cpu time spent up to now is     2640.0 secs

     total energy              =    -583.56911248 Ry
     estimated scf accuracy    <       0.00000005 Ry

     iteration # 12     ecut=    60.00 Ry     beta= 0.30
     Davidson diagonalization with overlap
     ethr =  3.71E-11,  avg # of iterations =  5.0

     negative rho (up, down):  4.415E-03 0.000E+00

     total cpu time spent up to now is     2654.2 secs

     total energy              =    -583.56911248 Ry
     estimated scf accuracy    <          4.2E-09 Ry

     iteration # 13     ecut=    60.00 Ry     beta= 0.30
     Davidson diagonalization with overlap
     ethr =  7.30E-12,  avg # of iterations =  6.0

     negative rho (up, down):  4.415E-03 0.000E+00

     total cpu time spent up to now is     2666.7 secs

     total energy              =    -583.56911248 Ry
     estimated scf accuracy    <       0.00000002 Ry

     iteration # 14     ecut=    60.00 Ry     beta= 0.30
     Davidson diagonalization with overlap
     ethr =  7.30E-12,  avg # of iterations =  2.0

     negative rho (up, down):  4.415E-03 0.000E+00

     total cpu time spent up to now is     2678.4 secs

     total energy              =    -583.56911249 Ry
     estimated scf accuracy    <       0.00000001 Ry

     iteration # 15     ecut=    60.00 Ry     beta= 0.30
     Davidson diagonalization with overlap
     ethr =  7.30E-12,  avg # of iterations =  1.0

     negative rho (up, down):  4.415E-03 0.000E+00

     total cpu time spent up to now is     2691.2 secs

     total energy              =    -583.56911248 Ry
     estimated scf accuracy    <       0.00000001 Ry

     iteration # 16     ecut=    60.00 Ry     beta= 0.30
     Davidson diagonalization with overlap
     ethr =  7.30E-12,  avg # of iterations =  6.0

     negative rho (up, down):  4.415E-03 0.000E+00

     total cpu time spent up to now is     2703.6 secs

     total energy              =    -583.56911248 Ry
     estimated scf accuracy    <          2.9E-09 Ry

     iteration # 17     ecut=    60.00 Ry     beta= 0.30
     Davidson diagonalization with overlap
     ethr =  5.00E-12,  avg # of iterations =  5.0

     negative rho (up, down):  4.415E-03 0.000E+00

     total cpu time spent up to now is     2716.2 secs

     total energy              =    -583.56911248 Ry
     estimated scf accuracy    <       0.00000002 Ry

     iteration # 18     ecut=    60.00 Ry     beta= 0.30
     Davidson diagonalization with overlap
     ethr =  5.00E-12,  avg # of iterations =  6.0

     negative rho (up, down):  4.415E-03 0.000E+00

     total cpu time spent up to now is     2729.5 secs

     End of self-consistent calculation

          k = 0.0000 0.0000 0.0000 ( 97224 PWs)   bands (ev):

  -109.2420 -69.6281 -69.6281 -69.6281 -28.9726 -28.9640 -28.9640 -28.9640
   -14.9589 -14.2030 -14.2030 -14.2030 -12.3650 -11.7954 -11.7954 -11.7515
   -11.7515 -11.7515 -11.5221 -11.5221 -11.5221 -11.3483 -11.3483 -11.3483
    -7.8204  -7.8204  -6.6814  -6.6814  -6.6814

     highest occupied level (ev):    -6.6814

!    total energy              =    -583.56911248 Ry
     estimated scf accuracy    <          6.2E-10 Ry

     The total energy is the sum of the following terms:
     one-electron contribution =   -2017.21536204 Ry
     hartree contribution      =    1009.47570862 Ry
     xc contribution           =     -82.56418415 Ry
     ewald contribution        =     569.58597270 Ry
     one-center paw contrib.   =     -62.85124761 Ry

     convergence has been achieved in  18 iterations

     negative rho (up, down):  4.415E-03 0.000E+00

     Forces acting on atoms (cartesian axes, Ry/au):

     atom    1 type  2   force =     0.00000000    0.00000000    0.00000000
     atom    2 type  1   force =    -0.00121615   -0.00121615   -0.00121615
     atom    3 type  3   force =     0.00111700    0.00111700    0.00111700
     atom    4 type  1   force =    -0.00121615    0.00121615    0.00121615
     atom    5 type  3   force =     0.00111700   -0.00111700   -0.00111700
     atom    6 type  1   force =     0.00121615   -0.00121615    0.00121615
     atom    7 type  3   force =    -0.00111700    0.00111700   -0.00111700
     atom    8 type  1   force =     0.00121615    0.00121615   -0.00121615
     atom    9 type  3   force =    -0.00111700   -0.00111700    0.00111700

     Total force =     0.005720     Total SCF correction =     0.000053
     Energy error            =      7.3E-05 Ry
     Gradient error          =      1.2E-03 Ry/Bohr

     number of scf cycles    =   7
     number of bfgs steps    =   5

     energy             old  =    -583.5690392091 Ry
     energy             new  =    -583.5691124802 Ry

     CASE: energy            _new < energy            _old

     new trust radius        =       0.0006236246 bohr
     new conv_thr            =       0.0000000007 Ry


ATOMIC_POSITIONS (angstrom)
Ni               7.7118435500        7.7118435500        7.7118435500
C                8.7579214972        8.7579214972        8.7579214972
O                9.4219992705        9.4219992705        9.4219992705
C                8.7579214972        6.6657655928        6.6657655928
O                9.4219992705        6.0016878295        6.0016878295
C                6.6657655928        8.7579214972        6.6657655928
O                6.0016878295        9.4219992705        6.0016878295
C                6.6657655928        6.6657655928        8.7579214972
O                6.0016878295        6.0016878295        9.4219992705



     Writing config-only to output data dir /mnt/d/Research/Dr.Kulik_MIT/qe/workdirs/ni_co4_initial/ni_co4_initial.save/ :
     XML data file
     NEW-OLD atomic charge density approx. for the potential

     negative rho (up, down):  4.415E-03 0.000E+00

     total cpu time spent up to now is     2742.5 secs

     Self-consistent Calculation

     iteration #  1     ecut=    60.00 Ry     beta= 0.30
     Davidson diagonalization with overlap
     ethr =  1.00E-06,  avg # of iterations =  2.0

     Threshold (ethr) on eigenvalues was too large:
     Diagonalizing with lowered threshold

     Davidson diagonalization with overlap
     ethr =  1.25E-09,  avg # of iterations =  6.0

     negative rho (up, down):  4.414E-03 0.000E+00

     total cpu time spent up to now is     2764.7 secs

     total energy              =    -583.56911560 Ry
     estimated scf accuracy    <       0.00000110 Ry

     iteration #  2     ecut=    60.00 Ry     beta= 0.30
     Davidson diagonalization with overlap
     ethr =  1.90E-09,  avg # of iterations =  6.0

     negative rho (up, down):  4.414E-03 0.000E+00

     total cpu time spent up to now is     2776.7 secs

     total energy              =    -583.56911551 Ry
     estimated scf accuracy    <       0.00000245 Ry

     iteration #  3     ecut=    60.00 Ry     beta= 0.30
     Davidson diagonalization with overlap
     ethr =  1.90E-09,  avg # of iterations =  5.0

     negative rho (up, down):  4.414E-03 0.000E+00

     total cpu time spent up to now is     2790.5 secs

     total energy              =    -583.56911568 Ry
     estimated scf accuracy    <       0.00000033 Ry

     iteration #  4     ecut=    60.00 Ry     beta= 0.30
     Davidson diagonalization with overlap
     ethr =  5.67E-10,  avg # of iterations =  2.0

     negative rho (up, down):  4.414E-03 0.000E+00

     total cpu time spent up to now is     2802.3 secs

     total energy              =    -583.56911574 Ry
     estimated scf accuracy    <       0.00000005 Ry

     iteration #  5     ecut=    60.00 Ry     beta= 0.30
     Davidson diagonalization with overlap
     ethr =  8.90E-11,  avg # of iterations =  6.0

     negative rho (up, down):  4.414E-03 0.000E+00

     total cpu time spent up to now is     2814.6 secs

     total energy              =    -583.56911574 Ry
     estimated scf accuracy    <       0.00000010 Ry

     iteration #  6     ecut=    60.00 Ry     beta= 0.30
     Davidson diagonalization with overlap
     ethr =  8.90E-11,  avg # of iterations =  6.0

     negative rho (up, down):  4.413E-03 0.000E+00

     total cpu time spent up to now is     2828.8 secs

     total energy              =    -583.56911576 Ry
     estimated scf accuracy    <       0.00000004 Ry

     iteration #  7     ecut=    60.00 Ry     beta= 0.30
     Davidson diagonalization with overlap
     ethr =  6.49E-11,  avg # of iterations =  5.0

     negative rho (up, down):  4.413E-03 0.000E+00

     total cpu time spent up to now is     2840.9 secs

     total energy              =    -583.56911576 Ry
     estimated scf accuracy    <          6.2E-09 Ry

     iteration #  8     ecut=    60.00 Ry     beta= 0.30
     Davidson diagonalization with overlap
     ethr =  1.06E-11,  avg # of iterations =  2.0

     negative rho (up, down):  4.413E-03 0.000E+00

     total cpu time spent up to now is     2852.4 secs

     total energy              =    -583.56911576 Ry
     estimated scf accuracy    <          2.5E-09 Ry

     iteration #  9     ecut=    60.00 Ry     beta= 0.30
     Davidson diagonalization with overlap
     ethr =  4.33E-12,  avg # of iterations =  8.0

     negative rho (up, down):  4.413E-03 0.000E+00

     total cpu time spent up to now is     2867.2 secs

     total energy              =    -583.56911576 Ry
     estimated scf accuracy    <       0.00000001 Ry

     iteration # 10     ecut=    60.00 Ry     beta= 0.30
     Davidson diagonalization with overlap
     ethr =  4.33E-12,  avg # of iterations =  2.0

     negative rho (up, down):  4.413E-03 0.000E+00

     total cpu time spent up to now is     2878.4 secs

     total energy              =    -583.56911577 Ry
     estimated scf accuracy    <          6.9E-09 Ry

     iteration # 11     ecut=    60.00 Ry     beta= 0.30
     Davidson diagonalization with overlap
     ethr =  4.33E-12,  avg # of iterations =  1.0

     negative rho (up, down):  4.413E-03 0.000E+00

     total cpu time spent up to now is     2891.3 secs

     total energy              =    -583.56911577 Ry
     estimated scf accuracy    <          5.2E-09 Ry

     iteration # 12     ecut=    60.00 Ry     beta= 0.30
     Davidson diagonalization with overlap
     ethr =  4.33E-12,  avg # of iterations =  1.0

     negative rho (up, down):  4.413E-03 0.000E+00

     total cpu time spent up to now is     2902.3 secs

     total energy              =    -583.56911576 Ry
     estimated scf accuracy    <          5.6E-09 Ry

     iteration # 13     ecut=    60.00 Ry     beta= 0.30
     Davidson diagonalization with overlap
     ethr =  4.33E-12,  avg # of iterations =  6.0

     negative rho (up, down):  4.413E-03 0.000E+00

     total cpu time spent up to now is     2914.4 secs

     End of self-consistent calculation

          k = 0.0000 0.0000 0.0000 ( 97224 PWs)   bands (ev):

  -109.2475 -69.6337 -69.6337 -69.6337 -28.9682 -28.9596 -28.9596 -28.9596
   -14.9622 -14.2045 -14.2045 -14.2045 -12.3658 -11.7935 -11.7935 -11.7494
   -11.7494 -11.7494 -11.5196 -11.5196 -11.5196 -11.3508 -11.3508 -11.3508
    -7.8254  -7.8254  -6.6852  -6.6852  -6.6852

     highest occupied level (ev):    -6.6852

!    total energy              =    -583.56911576 Ry
     estimated scf accuracy    <          4.0E-10 Ry

     The total energy is the sum of the following terms:
     one-electron contribution =   -2017.24804491 Ry
     hartree contribution      =    1009.48971664 Ry
     xc contribution           =     -82.56228568 Ry
     ewald contribution        =     569.60277983 Ry
     one-center paw contrib.   =     -62.85128164 Ry

     convergence has been achieved in  13 iterations

     negative rho (up, down):  4.413E-03 0.000E+00

     Forces acting on atoms (cartesian axes, Ry/au):

     atom    1 type  2   force =     0.00000000    0.00000000    0.00000000
     atom    2 type  1   force =    -0.00032198   -0.00032198   -0.00032198
     atom    3 type  3   force =     0.00033388    0.00033388    0.00033388
     atom    4 type  1   force =    -0.00032198    0.00032198    0.00032198
     atom    5 type  3   force =     0.00033388   -0.00033388   -0.00033388
     atom    6 type  1   force =     0.00032198   -0.00032198    0.00032198
     atom    7 type  3   force =    -0.00033388    0.00033388   -0.00033388
     atom    8 type  1   force =     0.00032198    0.00032198   -0.00032198
     atom    9 type  3   force =    -0.00033388   -0.00033388    0.00033388

     Total force =     0.001607     Total SCF correction =     0.000019
     Energy error            =      3.3E-06 Ry
     Gradient error          =      3.3E-04 Ry/Bohr

     number of scf cycles    =   8
     number of bfgs steps    =   6

     energy             old  =    -583.5691124802 Ry
     energy             new  =    -583.5691157566 Ry

     CASE: energy            _new < energy            _old

     new trust radius        =       0.0002710494 bohr
     new conv_thr            =            1.0E-10 Ry


ATOMIC_POSITIONS (angstrom)
Ni               7.7118435500        7.7118435500        7.7118435500
C                8.7579263653        8.7579263653        8.7579263653
O                9.4220820816        9.4220820816        9.4220820816
C                8.7579263653        6.6657607247        6.6657607247
O                9.4220820816        6.0016050184        6.0016050184
C                6.6657607247        8.7579263653        6.6657607247
O                6.0016050184        9.4220820816        6.0016050184
C                6.6657607247        6.6657607247        8.7579263653
O                6.0016050184        6.0016050184        9.4220820816



     Writing config-only to output data dir /mnt/d/Research/Dr.Kulik_MIT/qe/workdirs/ni_co4_initial/ni_co4_initial.save/ :
     XML data file
     NEW-OLD atomic charge density approx. for the potential

     negative rho (up, down):  4.413E-03 0.000E+00

     total cpu time spent up to now is     2929.1 secs

     Self-consistent Calculation

     iteration #  1     ecut=    60.00 Ry     beta= 0.30
     Davidson diagonalization with overlap
     ethr =  1.00E-06,  avg # of iterations =  2.0

     Threshold (ethr) on eigenvalues was too large:
     Diagonalizing with lowered threshold

     Davidson diagonalization with overlap
     ethr =  1.95E-10,  avg # of iterations =  9.0

     negative rho (up, down):  4.413E-03 0.000E+00

     total cpu time spent up to now is     2951.0 secs

     total energy              =    -583.56911606 Ry
     estimated scf accuracy    <       0.00000017 Ry

     iteration #  2     ecut=    60.00 Ry     beta= 0.30
     Davidson diagonalization with overlap
     ethr =  2.92E-10,  avg # of iterations =  5.0

     negative rho (up, down):  4.413E-03 0.000E+00

     total cpu time spent up to now is     2965.3 secs

     total energy              =    -583.56911604 Ry
     estimated scf accuracy    <       0.00000020 Ry

     iteration #  3     ecut=    60.00 Ry     beta= 0.30
     Davidson diagonalization with overlap
     ethr =  2.92E-10,  avg # of iterations =  5.0

     negative rho (up, down):  4.413E-03 0.000E+00

     total cpu time spent up to now is     2977.4 secs

     total energy              =    -583.56911604 Ry
     estimated scf accuracy    <       0.00000008 Ry

     iteration #  4     ecut=    60.00 Ry     beta= 0.30
     Davidson diagonalization with overlap
     ethr =  1.42E-10,  avg # of iterations =  5.0

     negative rho (up, down):  4.413E-03 0.000E+00

     total cpu time spent up to now is     2991.8 secs

     total energy              =    -583.56911605 Ry
     estimated scf accuracy    <       0.00000003 Ry

     iteration #  5     ecut=    60.00 Ry     beta= 0.30
     Davidson diagonalization with overlap
     ethr =  4.40E-11,  avg # of iterations =  2.0

     negative rho (up, down):  4.413E-03 0.000E+00

     total cpu time spent up to now is     3003.1 secs

     total energy              =    -583.56911605 Ry
     estimated scf accuracy    <       0.00000001 Ry

     iteration #  6     ecut=    60.00 Ry     beta= 0.30
     Davidson diagonalization with overlap
     ethr =  2.33E-11,  avg # of iterations =  6.0

     negative rho (up, down):  4.413E-03 0.000E+00

     total cpu time spent up to now is     3016.1 secs

     total energy              =    -583.56911607 Ry
     estimated scf accuracy    <       0.00000010 Ry

     iteration #  7     ecut=    60.00 Ry     beta= 0.30
     Davidson diagonalization with overlap
     ethr =  2.33E-11,  avg # of iterations =  1.0

     negative rho (up, down):  4.413E-03 0.000E+00

     total cpu time spent up to now is     3029.9 secs

     total energy              =    -583.56911606 Ry
     estimated scf accuracy    <       0.00000011 Ry

     iteration #  8     ecut=    60.00 Ry     beta= 0.30
     Davidson diagonalization with overlap
     ethr =  2.33E-11,  avg # of iterations =  2.0

     negative rho (up, down):  4.413E-03 0.000E+00

     total cpu time spent up to now is     3040.9 secs

     total energy              =    -583.56911603 Ry
     estimated scf accuracy    <       0.00000009 Ry

     iteration #  9     ecut=    60.00 Ry     beta= 0.30
     Davidson diagonalization with overlap
     ethr =  2.33E-11,  avg # of iterations =  9.0

     negative rho (up, down):  4.413E-03 0.000E+00

     total cpu time spent up to now is     3054.9 secs

     total energy              =    -583.56911606 Ry
     estimated scf accuracy    <       0.00000014 Ry

     iteration # 10     ecut=    60.00 Ry     beta= 0.30
     Davidson diagonalization with overlap
     ethr =  2.33E-11,  avg # of iterations =  2.0

     negative rho (up, down):  4.413E-03 0.000E+00

     total cpu time spent up to now is     3068.4 secs

     total energy              =    -583.56911605 Ry
     estimated scf accuracy    <       0.00000011 Ry

     iteration # 11     ecut=    60.00 Ry     beta= 0.30
     Davidson diagonalization with overlap
     ethr =  2.33E-11,  avg # of iterations =  6.0

     negative rho (up, down):  4.413E-03 0.000E+00

     total cpu time spent up to now is     3080.7 secs

     total energy              =    -583.56911606 Ry
     estimated scf accuracy    <          7.7E-09 Ry

     iteration # 12     ecut=    60.00 Ry     beta= 0.30
     Davidson diagonalization with overlap
     ethr =  1.32E-11,  avg # of iterations =  2.0

     negative rho (up, down):  4.413E-03 0.000E+00

     total cpu time spent up to now is     3094.2 secs

     total energy              =    -583.56911606 Ry
     estimated scf accuracy    <          3.7E-09 Ry

     iteration # 13     ecut=    60.00 Ry     beta= 0.30
     Davidson diagonalization with overlap
     ethr =  6.41E-12,  avg # of iterations =  4.0

     negative rho (up, down):  4.413E-03 0.000E+00

     total cpu time spent up to now is     3106.5 secs

     total energy              =    -583.56911606 Ry
     estimated scf accuracy    <          2.6E-10 Ry

     iteration # 14     ecut=    60.00 Ry     beta= 0.30
     Davidson diagonalization with overlap
     ethr =  4.44E-13,  avg # of iterations =  7.0

     negative rho (up, down):  4.413E-03 0.000E+00

     total cpu time spent up to now is     3120.3 secs

     total energy              =    -583.56911606 Ry
     estimated scf accuracy    <          7.1E-09 Ry

     iteration # 15     ecut=    60.00 Ry     beta= 0.30
     Davidson diagonalization with overlap
     ethr =  4.44E-13,  avg # of iterations = 10.0

     negative rho (up, down):  4.413E-03 0.000E+00

     total cpu time spent up to now is     3135.9 secs

     total energy              =    -583.56911606 Ry
     estimated scf accuracy    <          3.6E-10 Ry

     iteration # 16     ecut=    60.00 Ry     beta= 0.30
     Davidson diagonalization with overlap
     ethr =  4.44E-13,  avg # of iterations =  4.0

     negative rho (up, down):  4.413E-03 0.000E+00

     total cpu time spent up to now is     3148.6 secs

     total energy              =    -583.56911606 Ry
     estimated scf accuracy    <          2.0E-10 Ry

     iteration # 17     ecut=    60.00 Ry     beta= 0.30
     Davidson diagonalization with overlap
     ethr =  3.39E-13,  avg # of iterations =  6.0

     negative rho (up, down):  4.413E-03 0.000E+00

     total cpu time spent up to now is     3163.1 secs

     total energy              =    -583.56911606 Ry
     estimated scf accuracy    <          6.6E-10 Ry

     iteration # 18     ecut=    60.00 Ry     beta= 0.30
     Davidson diagonalization with overlap
     ethr =  3.39E-13,  avg # of iterations =  4.0

     negative rho (up, down):  4.413E-03 0.000E+00

     total cpu time spent up to now is     3175.2 secs

     total energy              =    -583.56911606 Ry
     estimated scf accuracy    <          1.0E-09 Ry

     iteration # 19     ecut=    60.00 Ry     beta= 0.30
     Davidson diagonalization with overlap
     ethr =  3.39E-13,  avg # of iterations =  1.0

     negative rho (up, down):  4.413E-03 0.000E+00

     total cpu time spent up to now is     3187.1 secs

     total energy              =    -583.56911606 Ry
     estimated scf accuracy    <          1.1E-09 Ry

     iteration # 20     ecut=    60.00 Ry     beta= 0.30
     Davidson diagonalization with overlap
     ethr =  3.39E-13,  avg # of iterations =  2.0

     negative rho (up, down):  4.413E-03 0.000E+00

     total cpu time spent up to now is     3200.2 secs

     total energy              =    -583.56911606 Ry
     estimated scf accuracy    <          1.3E-09 Ry

     iteration # 21     ecut=    60.00 Ry     beta= 0.30
     Davidson diagonalization with overlap
     ethr =  3.39E-13,  avg # of iterations =  6.0

     negative rho (up, down):  4.413E-03 0.000E+00

     total cpu time spent up to now is     3212.4 secs

     End of self-consistent calculation

          k = 0.0000 0.0000 0.0000 ( 97224 PWs)   bands (ev):

  -109.2485 -69.6347 -69.6347 -69.6347 -28.9664 -28.9578 -28.9578 -28.9578
   -14.9630 -14.2050 -14.2050 -14.2050 -12.3657 -11.7926 -11.7926 -11.7485
   -11.7485 -11.7485 -11.5186 -11.5186 -11.5186 -11.3512 -11.3512 -11.3512
    -7.8263  -7.8263  -6.6861  -6.6861  -6.6861

     highest occupied level (ev):    -6.6861

!    total energy              =    -583.56911606 Ry
     estimated scf accuracy    <          6.5E-11 Ry

     The total energy is the sum of the following terms:
     one-electron contribution =   -2017.20126843 Ry
     hartree contribution      =    1009.46556369 Ry
     xc contribution           =     -82.56118515 Ry
     ewald contribution        =     569.57907013 Ry
     one-center paw contrib.   =     -62.85129630 Ry

     convergence has been achieved in  21 iterations

     negative rho (up, down):  4.413E-03 0.000E+00

     Forces acting on atoms (cartesian axes, Ry/au):

     atom    1 type  2   force =     0.00000000    0.00000000    0.00000000
     atom    2 type  1   force =    -0.00000341   -0.00000341   -0.00000341
     atom    3 type  3   force =     0.00000554    0.00000554    0.00000554
     atom    4 type  1   force =    -0.00000341    0.00000341    0.00000341
     atom    5 type  3   force =     0.00000554   -0.00000554   -0.00000554
     atom    6 type  1   force =     0.00000341   -0.00000341    0.00000341
     atom    7 type  3   force =    -0.00000554    0.00000554   -0.00000554
     atom    8 type  1   force =     0.00000341    0.00000341   -0.00000341
     atom    9 type  3   force =    -0.00000554   -0.00000554    0.00000554

     Total force =     0.000023     Total SCF correction =     0.000020
     SCF correction compared to forces is large: reduce conv_thr to get better values
     Energy error            =      3.0E-07 Ry
     Gradient error          =      5.5E-06 Ry/Bohr

     bfgs converged in   9 scf cycles and   7 bfgs steps
     (criteria: energy <  1.0E-05 Ry, force <  1.0E-04 Ry/Bohr)

     End of BFGS Geometry Optimization

     Final energy             =    -583.5691160575 Ry

     File /mnt/d/Research/Dr.Kulik_MIT/qe/workdirs/ni_co4_initial/ni_co4_initial.bfgs deleted, as requested
Begin final coordinates

ATOMIC_POSITIONS (angstrom)
Ni               7.7118435500        7.7118435500        7.7118435500
C                8.7579263653        8.7579263653        8.7579263653
O                9.4220820816        9.4220820816        9.4220820816
C                8.7579263653        6.6657607247        6.6657607247
O                9.4220820816        6.0016050184        6.0016050184
C                6.6657607247        8.7579263653        6.6657607247
O                6.0016050184        9.4220820816        6.0016050184
C                6.6657607247        6.6657607247        8.7579263653
O                6.0016050184        6.0016050184        9.4220820816
End final coordinates



     Writing all to output data dir /mnt/d/Research/Dr.Kulik_MIT/qe/workdirs/ni_co4_initial/ni_co4_initial.save/ :
     XML data file, charge density, pseudopotentials, collected wavefunctions

     init_run     :      4.99s CPU      8.66s WALL (       1 calls)
     electrons    :   1836.29s CPU   3094.11s WALL (       9 calls)
     update_pot   :      9.28s CPU     15.17s WALL (       8 calls)
     forces       :     31.62s CPU     66.96s WALL (       9 calls)

     Called by init_run:
     wfcinit      :      0.76s CPU      0.86s WALL (       1 calls)
     potinit      :      1.30s CPU      2.28s WALL (       1 calls)
     hinit0       :      0.96s CPU      1.24s WALL (       1 calls)

     Called by electrons:
     c_bands      :    432.58s CPU    555.44s WALL (     242 calls)
     sum_band     :    745.35s CPU   1187.93s WALL (     242 calls)
     v_of_rho     :    182.14s CPU    320.70s WALL (     247 calls)
     newd         :    393.27s CPU    942.05s WALL (     247 calls)
     PAW_pot      :     12.86s CPU     13.91s WALL (     255 calls)
     mix_rho      :     55.05s CPU     69.93s WALL (     242 calls)

     Called by c_bands:
     init_us_2    :      9.17s CPU     12.64s WALL (     502 calls)
     regterg      :    421.31s CPU    543.42s WALL (     242 calls)

     Called by *egterg:
     rdiaghg      :      1.42s CPU      2.72s WALL (    1206 calls)
     h_psi        :    352.02s CPU    434.42s WALL (    1219 calls)
     s_psi        :     10.00s CPU      9.91s WALL (    1219 calls)
     g_psi        :      1.22s CPU      1.03s WALL (     976 calls)

     Called by h_psi:
     h_psi:calbec :     14.13s CPU     21.23s WALL (    1219 calls)
     vloc_psi     :    324.32s CPU    397.09s WALL (    1219 calls)
     add_vuspsi   :     11.34s CPU     13.77s WALL (    1219 calls)

     General routines
     calbec       :     18.61s CPU     27.51s WALL (    1505 calls)
     fft          :    188.83s CPU    328.39s WALL (    2801 calls)
     ffts         :     10.64s CPU     14.41s WALL (     489 calls)
     fftw         :    232.20s CPU    306.49s WALL (   25628 calls)
     interpolate  :     25.00s CPU     34.65s WALL (     247 calls)

     Parallel routines

     PWSCF        :  31m37.18s CPU  53m40.07s WALL


   This run was terminated on:   3:57:52  29Jun2026            

=------------------------------------------------------------------------------=
   JOB DONE.
=------------------------------------------------------------------------------=
