
     Program PWSCF v.7.4.1 starts on 30Jun2026 at  1:22:35 

     This program is part of the open-source Quantum ESPRESSO suite
     for quantum simulation of materials; please cite
         "P. Giannozzi et al., J. Phys.:Condens. Matter 21 395502 (2009);
         "P. Giannozzi et al., J. Phys.:Condens. Matter 29 465901 (2017);
         "P. Giannozzi et al., J. Chem. Phys. 152 154105 (2020);
          URL http://www.quantum-espresso.org", 
     in publications or presentations arising from this work. More details at
     http://www.quantum-espresso.org/quote

     Parallel version (MPI), running on     4 processors

     MPI processes distributed on     1 nodes
     15015 MiB available memory on the printing compute node when the environment starts

     Reading input from qe/inputs/relax/ferrocene__ring2_rotation_deg__+36.in

     Current dimensions of program PWSCF are:
     Max number of different atomic species (ntypx) = 10
     Max number of k-points (npk) =  40000
     Max angular momentum in pseudopotentials (lmaxx) =  4
     file C.pbe-n-kjpaw_psl.1.0.0.UPF: wavefunction(s)  2S 2P renormalized
     file Fe.pbe-spn-kjpaw_psl.0.2.1.UPF: wavefunction(s)  3D renormalized

     gamma-point specific algorithms are used

     R & G space division:  proc/nbgrp/npool/nimage =       4
     Subspace diagonalization in iterative solution of the eigenvalue problem:
     a serial algorithm will be used


     Parallelization info
     --------------------
     sticks:   dense  smooth     PW     G-vecs:    dense   smooth      PW
     Min        9357    4679   1165              1361050   481169   60097
     Max        9360    4682   1168              1361052   481170   60108
     Sum       37433   18725   4669              5444203  1924679  240417

     Using Slab Decomposition



     bravais-lattice index     =            1
     lattice parameter (alat)  =      31.2973  a.u.
     unit-cell volume          =   30656.3863 (a.u.)^3
     number of atoms/cell      =           21
     number of atomic types    =            3
     number of electrons       =        66.00
     number of Kohn-Sham states=           33
     kinetic-energy cutoff     =      60.0000  Ry
     charge density cutoff     =     480.0000  Ry
     scf convergence threshold =      1.0E-08
     mixing beta               =       0.3000
     number of iterations used =            8  plain     mixing
     energy convergence thresh.=      1.0E-05
     force convergence thresh. =      1.0E-04
     Exchange-correlation= PBE
                           (   1   4   3   4   0   0   0)
     nstep                     =           50

     Assuming isolated system, Martyna-Tuckerman method


     celldm(1)=  31.297308  celldm(2)=   0.000000  celldm(3)=   0.000000
     celldm(4)=   0.000000  celldm(5)=   0.000000  celldm(6)=   0.000000

     crystal axes: (cart. coord. in units of alat)
               a(1) = (   1.000000   0.000000   0.000000 )  
               a(2) = (   0.000000   1.000000   0.000000 )  
               a(3) = (   0.000000   0.000000   1.000000 )  

     reciprocal axes: (cart. coord. in units 2 pi/alat)
               b(1) = (  1.000000  0.000000  0.000000 )  
               b(2) = (  0.000000  1.000000  0.000000 )  
               b(3) = (  0.000000  0.000000  1.000000 )  


     PseudoPot. # 1 for C  read from file:
     /mnt/d/Rifat_kh/SSSP_1.3.0_PBE_efficiency/C.pbe-n-kjpaw_psl.1.0.0.UPF
     MD5 check sum: 5d2aebdfa2cae82b50a7e79e9516da0f
     Pseudo is Projector augmented-wave + core cor, Zval =  4.0
     Generated using "atomic" code by A. Dal Corso  v.5.1
     Shape of augmentation charge: PSQ
     Using radial grid of 1073 points,  4 beta functions with: 
                l(1) =   0
                l(2) =   0
                l(3) =   1
                l(4) =   1
     Q(r) pseudized with 0 coefficients 


     PseudoPot. # 2 for Fe read from file:
     /mnt/d/Rifat_kh/SSSP_1.3.0_PBE_efficiency/Fe.pbe-spn-kjpaw_psl.0.2.1.UPF
     MD5 check sum: e86618425769142926afa95317d90200
     Pseudo is Projector augmented-wave + core cor, Zval = 16.0
     Generated using "atomic" code by A. Dal Corso  v.5.0.99 svn rev. 10869
     Shape of augmentation charge: PSQ
     Using radial grid of 1191 points,  6 beta functions with: 
                l(1) =   0
                l(2) =   0
                l(3) =   1
                l(4) =   1
                l(5) =   2
                l(6) =   2
     Q(r) pseudized with 0 coefficients 


     PseudoPot. # 3 for H  read from file:
     /mnt/d/Rifat_kh/SSSP_1.3.0_PBE_efficiency/H.pbe-rrkjus_psl.1.0.0.UPF
     MD5 check sum: f52b6d4d1c606e5624b1dc7b2218f220
     Pseudo is Ultrasoft, Zval =  1.0
     Generated using "atomic" code by A. Dal Corso  v.5.1
     Using radial grid of  929 points,  2 beta functions with: 
                l(1) =   0
                l(2) =   0
     Q(r) pseudized with 0 coefficients 


     atomic species   valence    mass     pseudopotential
     C                 4.00    12.01100     C ( 1.00)
     Fe               16.00    55.84500     Fe( 1.00)
     H                 1.00     1.00800     H ( 1.00)

      4 Sym. Ops., with inversion, found



   Cartesian axes

     site n.     atom                  positions (alat units)
         1        Fe     tau(   1) = (   0.5000000   0.5000000   0.5000000  )
         2        C      tau(   2) = (   0.5719070   0.5000000   0.6002305  )
         3        C      tau(   3) = (   0.5222205   0.5683876   0.6002305  )
         4        C      tau(   4) = (   0.4418260   0.5422659   0.6002305  )
         5        C      tau(   5) = (   0.4418260   0.4577341   0.6002305  )
         6        C      tau(   6) = (   0.5222205   0.4316124   0.6002305  )
         7        H      tau(   7) = (   0.6377210   0.5000000   0.6002305  )
         8        H      tau(   8) = (   0.5425581   0.6309805   0.6002305  )
         9        H      tau(   9) = (   0.3885814   0.5809504   0.6002305  )
        10        H      tau(  10) = (   0.3885814   0.4190496   0.6002305  )
        11        H      tau(  11) = (   0.5425581   0.3690195   0.6002305  )
        12        C      tau(  12) = (   0.5581740   0.5422659   0.3997695  )
        13        C      tau(  13) = (   0.4777795   0.5683876   0.3997695  )
        14        C      tau(  14) = (   0.4280930   0.5000000   0.3997695  )
        15        C      tau(  15) = (   0.4777795   0.4316124   0.3997695  )
        16        C      tau(  16) = (   0.5581740   0.4577341   0.3997695  )
        17        H      tau(  17) = (   0.6114186   0.5809504   0.3997695  )
        18        H      tau(  18) = (   0.4574419   0.6309805   0.3997695  )
        19        H      tau(  19) = (   0.3622790   0.5000000   0.3997695  )
        20        H      tau(  20) = (   0.4574419   0.3690195   0.3997695  )
        21        H      tau(  21) = (   0.6114186   0.4190496   0.3997695  )

     number of k points=     1
                       cart. coord. in units 2pi/alat
        k(    1) = (   0.0000000   0.0000000   0.0000000), wk =   2.0000000

     Dense  grid:  2722102 G-vectors     FFT dimensions: ( 225, 225, 225)

     Smooth grid:   962340 G-vectors     FFT dimensions: ( 160, 160, 160)

     Estimated max dynamical RAM per process >       2.76 GB

     Estimated total dynamical RAM >      11.02 GB

     Check: negative core charge=   -0.000002

     Initial potential from superposition of free atoms

     starting charge      65.9991, renormalised to      66.0000

     negative rho (up, down):  8.888E-03 0.000E+00
     Starting wfcs are   63 randomized atomic wfcs
     Checking if some PAW data can be deallocated... 

     total cpu time spent up to now is       10.4 secs

     Self-consistent Calculation

     iteration #  1     ecut=    60.00 Ry     beta= 0.30
     Davidson diagonalization with overlap
     ethr =  1.00E-02,  avg # of iterations =  3.0

     negative rho (up, down):  8.813E-03 0.000E+00

     total cpu time spent up to now is       27.6 secs

     total energy              =    -525.35273526 Ry
     estimated scf accuracy    <       2.05477950 Ry

     iteration #  2     ecut=    60.00 Ry     beta= 0.30
     Davidson diagonalization with overlap
     ethr =  3.11E-03,  avg # of iterations =  2.0

     negative rho (up, down):  9.220E-02 0.000E+00

     total cpu time spent up to now is       41.4 secs

     total energy              =    -524.92808939 Ry
     estimated scf accuracy    <       0.88411158 Ry

     iteration #  3     ecut=    60.00 Ry     beta= 0.30
     Davidson diagonalization with overlap
     ethr =  1.34E-03,  avg # of iterations =  5.0

     negative rho (up, down):  3.715E-02 0.000E+00

     total cpu time spent up to now is       59.2 secs

     total energy              =    -525.29706146 Ry
     estimated scf accuracy    <       0.28645714 Ry

     iteration #  4     ecut=    60.00 Ry     beta= 0.30
     Davidson diagonalization with overlap
     ethr =  4.34E-04,  avg # of iterations =  5.0

     negative rho (up, down):  2.946E-02 0.000E+00

     total cpu time spent up to now is       73.6 secs

     total energy              =    -525.30240114 Ry
     estimated scf accuracy    <       0.11255977 Ry

     iteration #  5     ecut=    60.00 Ry     beta= 0.30
     Davidson diagonalization with overlap
     ethr =  1.71E-04,  avg # of iterations =  6.0

     negative rho (up, down):  3.507E-02 0.000E+00

     total cpu time spent up to now is       92.3 secs

     total energy              =    -525.29812748 Ry
     estimated scf accuracy    <       0.49255154 Ry

     iteration #  6     ecut=    60.00 Ry     beta= 0.30
     Davidson diagonalization with overlap
     ethr =  1.71E-04,  avg # of iterations =  5.0

     negative rho (up, down):  3.257E-02 0.000E+00

     total cpu time spent up to now is      106.9 secs

     total energy              =    -525.30788827 Ry
     estimated scf accuracy    <       0.08714710 Ry

     iteration #  7     ecut=    60.00 Ry     beta= 0.30
     Davidson diagonalization with overlap
     ethr =  1.32E-04,  avg # of iterations =  3.0

     negative rho (up, down):  2.048E-02 0.000E+00

     total cpu time spent up to now is      121.3 secs

     total energy              =    -525.33695306 Ry
     estimated scf accuracy    <       0.01158189 Ry

     iteration #  8     ecut=    60.00 Ry     beta= 0.30
     Davidson diagonalization with overlap
     ethr =  1.75E-05,  avg # of iterations =  6.0

     negative rho (up, down):  1.827E-02 0.000E+00

     total cpu time spent up to now is      139.6 secs

     total energy              =    -525.33598181 Ry
     estimated scf accuracy    <       0.04061973 Ry

     iteration #  9     ecut=    60.00 Ry     beta= 0.30
     Davidson diagonalization with overlap
     ethr =  1.75E-05,  avg # of iterations =  5.0

     negative rho (up, down):  1.654E-02 0.000E+00

     total cpu time spent up to now is      154.4 secs

     total energy              =    -525.34012014 Ry
     estimated scf accuracy    <       0.00244591 Ry

     iteration # 10     ecut=    60.00 Ry     beta= 0.30
     Davidson diagonalization with overlap
     ethr =  3.71E-06,  avg # of iterations =  5.0

     negative rho (up, down):  1.459E-02 0.000E+00

     total cpu time spent up to now is      171.4 secs

     total energy              =    -525.34031111 Ry
     estimated scf accuracy    <       0.00147303 Ry

     iteration # 11     ecut=    60.00 Ry     beta= 0.30
     Davidson diagonalization with overlap
     ethr =  2.23E-06,  avg # of iterations =  4.0

     negative rho (up, down):  1.392E-02 0.000E+00

     total cpu time spent up to now is      185.4 secs

     total energy              =    -525.34038900 Ry
     estimated scf accuracy    <       0.00048017 Ry

     iteration # 12     ecut=    60.00 Ry     beta= 0.30
     Davidson diagonalization with overlap
     ethr =  7.28E-07,  avg # of iterations =  5.0

     negative rho (up, down):  1.360E-02 0.000E+00

     total cpu time spent up to now is      202.7 secs

     total energy              =    -525.34058518 Ry
     estimated scf accuracy    <       0.00016833 Ry

     iteration # 13     ecut=    60.00 Ry     beta= 0.30
     Davidson diagonalization with overlap
     ethr =  2.55E-07,  avg # of iterations =  2.0

     negative rho (up, down):  1.344E-02 0.000E+00

     total cpu time spent up to now is      216.3 secs

     total energy              =    -525.34058707 Ry
     estimated scf accuracy    <       0.00010900 Ry

     iteration # 14     ecut=    60.00 Ry     beta= 0.30
     Davidson diagonalization with overlap
     ethr =  1.65E-07,  avg # of iterations =  2.0

     negative rho (up, down):  1.338E-02 0.000E+00

     total cpu time spent up to now is      232.5 secs

     total energy              =    -525.34057900 Ry
     estimated scf accuracy    <       0.00005954 Ry

     iteration # 15     ecut=    60.00 Ry     beta= 0.30
     Davidson diagonalization with overlap
     ethr =  9.02E-08,  avg # of iterations =  4.0

     negative rho (up, down):  1.336E-02 0.000E+00

     total cpu time spent up to now is      246.2 secs

     total energy              =    -525.34058677 Ry
     estimated scf accuracy    <       0.00000705 Ry

     iteration # 16     ecut=    60.00 Ry     beta= 0.30
     Davidson diagonalization with overlap
     ethr =  1.07E-08,  avg # of iterations =  5.0

     negative rho (up, down):  1.334E-02 0.000E+00

     total cpu time spent up to now is      261.3 secs

     total energy              =    -525.34059131 Ry
     estimated scf accuracy    <       0.00000751 Ry

     iteration # 17     ecut=    60.00 Ry     beta= 0.30
     Davidson diagonalization with overlap
     ethr =  1.07E-08,  avg # of iterations =  1.0

     negative rho (up, down):  1.334E-02 0.000E+00

     total cpu time spent up to now is      277.3 secs

     total energy              =    -525.34059206 Ry
     estimated scf accuracy    <       0.00000807 Ry

     iteration # 18     ecut=    60.00 Ry     beta= 0.30
     Davidson diagonalization with overlap
     ethr =  1.07E-08,  avg # of iterations =  1.0

     negative rho (up, down):  1.334E-02 0.000E+00

     total cpu time spent up to now is      290.8 secs

     total energy              =    -525.34058983 Ry
     estimated scf accuracy    <       0.00000963 Ry

     iteration # 19     ecut=    60.00 Ry     beta= 0.30
     Davidson diagonalization with overlap
     ethr =  1.07E-08,  avg # of iterations =  2.0

     negative rho (up, down):  1.334E-02 0.000E+00

     total cpu time spent up to now is      307.1 secs

     total energy              =    -525.34059047 Ry
     estimated scf accuracy    <       0.00000629 Ry

     iteration # 20     ecut=    60.00 Ry     beta= 0.30
     Davidson diagonalization with overlap
     ethr =  9.53E-09,  avg # of iterations =  2.0

     negative rho (up, down):  1.334E-02 0.000E+00

     total cpu time spent up to now is      320.4 secs

     total energy              =    -525.34059001 Ry
     estimated scf accuracy    <       0.00000294 Ry

     iteration # 21     ecut=    60.00 Ry     beta= 0.30
     Davidson diagonalization with overlap
     ethr =  4.45E-09,  avg # of iterations =  4.0

     negative rho (up, down):  1.334E-02 0.000E+00

     total cpu time spent up to now is      334.2 secs

     total energy              =    -525.34059057 Ry
     estimated scf accuracy    <       0.00000083 Ry

     iteration # 22     ecut=    60.00 Ry     beta= 0.30
     Davidson diagonalization with overlap
     ethr =  1.25E-09,  avg # of iterations =  4.0

     negative rho (up, down):  1.334E-02 0.000E+00

     total cpu time spent up to now is      351.1 secs

     total energy              =    -525.34059064 Ry
     estimated scf accuracy    <       0.00000086 Ry

     iteration # 23     ecut=    60.00 Ry     beta= 0.30
     Davidson diagonalization with overlap
     ethr =  1.25E-09,  avg # of iterations =  1.0

     negative rho (up, down):  1.334E-02 0.000E+00

     total cpu time spent up to now is      364.0 secs

     total energy              =    -525.34059057 Ry
     estimated scf accuracy    <       0.00000095 Ry

     iteration # 24     ecut=    60.00 Ry     beta= 0.30
     Davidson diagonalization with overlap
     ethr =  1.25E-09,  avg # of iterations =  1.0

     negative rho (up, down):  1.334E-02 0.000E+00

     total cpu time spent up to now is      380.1 secs

     total energy              =    -525.34059035 Ry
     estimated scf accuracy    <       0.00000073 Ry

     iteration # 25     ecut=    60.00 Ry     beta= 0.30
     Davidson diagonalization with overlap
     ethr =  1.11E-09,  avg # of iterations =  5.0

     negative rho (up, down):  1.334E-02 0.000E+00

     total cpu time spent up to now is      394.3 secs

     total energy              =    -525.34059059 Ry
     estimated scf accuracy    <       0.00000067 Ry

     iteration # 26     ecut=    60.00 Ry     beta= 0.30
     Davidson diagonalization with overlap
     ethr =  1.02E-09,  avg # of iterations =  2.0

     negative rho (up, down):  1.334E-02 0.000E+00

     total cpu time spent up to now is      410.6 secs

     total energy              =    -525.34059041 Ry
     estimated scf accuracy    <       0.00000075 Ry

     iteration # 27     ecut=    60.00 Ry     beta= 0.30
     Davidson diagonalization with overlap
     ethr =  1.02E-09,  avg # of iterations =  5.0

     negative rho (up, down):  1.334E-02 0.000E+00

     total cpu time spent up to now is      424.6 secs

     total energy              =    -525.34059054 Ry
     estimated scf accuracy    <       0.00000017 Ry

     iteration # 28     ecut=    60.00 Ry     beta= 0.30
     Davidson diagonalization with overlap
     ethr =  2.56E-10,  avg # of iterations =  2.0

     negative rho (up, down):  1.334E-02 0.000E+00

     total cpu time spent up to now is      437.8 secs

     total energy              =    -525.34059058 Ry
     estimated scf accuracy    <       0.00000015 Ry

     iteration # 29     ecut=    60.00 Ry     beta= 0.30
     Davidson diagonalization with overlap
     ethr =  2.23E-10,  avg # of iterations =  5.0

     negative rho (up, down):  1.334E-02 0.000E+00

     total cpu time spent up to now is      454.6 secs

     total energy              =    -525.34059056 Ry
     estimated scf accuracy    <       0.00000066 Ry

     iteration # 30     ecut=    60.00 Ry     beta= 0.30
     Davidson diagonalization with overlap
     ethr =  2.23E-10,  avg # of iterations =  2.0

     negative rho (up, down):  1.334E-02 0.000E+00

     total cpu time spent up to now is      468.1 secs

     total energy              =    -525.34059049 Ry
     estimated scf accuracy    <       0.00000048 Ry

     iteration # 31     ecut=    60.00 Ry     beta= 0.30
     Davidson diagonalization with overlap
     ethr =  2.23E-10,  avg # of iterations =  5.0

     negative rho (up, down):  1.334E-02 0.000E+00

     total cpu time spent up to now is      485.8 secs

     total energy              =    -525.34059054 Ry
     estimated scf accuracy    <       0.00000007 Ry

     iteration # 32     ecut=    60.00 Ry     beta= 0.30
     Davidson diagonalization with overlap
     ethr =  1.13E-10,  avg # of iterations =  5.0

     negative rho (up, down):  1.334E-02 0.000E+00

     total cpu time spent up to now is      499.7 secs

     total energy              =    -525.34059053 Ry
     estimated scf accuracy    <       0.00000006 Ry

     iteration # 33     ecut=    60.00 Ry     beta= 0.30
     Davidson diagonalization with overlap
     ethr =  9.17E-11,  avg # of iterations =  4.0

     negative rho (up, down):  1.334E-02 0.000E+00

     total cpu time spent up to now is      517.0 secs

     total energy              =    -525.34059054 Ry
     estimated scf accuracy    <       0.00000003 Ry

     iteration # 34     ecut=    60.00 Ry     beta= 0.30
     Davidson diagonalization with overlap
     ethr =  4.82E-11,  avg # of iterations =  5.0

     negative rho (up, down):  1.334E-02 0.000E+00

     total cpu time spent up to now is      531.3 secs

     total energy              =    -525.34059054 Ry
     estimated scf accuracy    <       0.00000002 Ry

     iteration # 35     ecut=    60.00 Ry     beta= 0.30
     Davidson diagonalization with overlap
     ethr =  2.73E-11,  avg # of iterations =  2.0

     negative rho (up, down):  1.334E-02 0.000E+00

     total cpu time spent up to now is      544.7 secs

     total energy              =    -525.34059053 Ry
     estimated scf accuracy    <       0.00000001 Ry

     iteration # 36     ecut=    60.00 Ry     beta= 0.30
     Davidson diagonalization with overlap
     ethr =  1.62E-11,  avg # of iterations =  5.0

     negative rho (up, down):  1.334E-02 0.000E+00

     total cpu time spent up to now is      561.8 secs

     End of self-consistent calculation

          k = 0.0000 0.0000 0.0000 (120209 PWs)   bands (ev):

   -90.0539 -56.9327 -55.8033 -55.8033 -22.6060 -22.1637 -17.6455 -17.6455
   -17.6051 -17.6051 -13.3164 -13.3164 -13.2310 -13.1209 -13.1209 -12.9142
   -10.4183  -9.8998  -9.8998  -9.5859  -9.5858  -9.1241  -9.1241  -9.0949
    -9.0900  -9.0900  -6.7310  -6.7310  -6.2075  -6.2075  -4.4352  -4.1715
    -4.1715

     highest occupied level (ev):    -4.1715

!    total energy              =    -525.34059054 Ry
     estimated scf accuracy    <          2.0E-09 Ry

     The total energy is the sum of the following terms:
     one-electron contribution =   -2342.49977453 Ry
     hartree contribution      =    1175.46307064 Ry
     xc contribution           =     -88.54963074 Ry
     ewald contribution        =     868.07282815 Ry
     one-center paw contrib.   =    -137.82708406 Ry

     convergence has been achieved in  36 iterations

     negative rho (up, down):  1.334E-02 0.000E+00

     Forces acting on atoms (cartesian axes, Ry/au):

     atom    1 type  2   force =     0.00000000    0.00000000    0.00000000
     atom    2 type  1   force =     0.07258109    0.00000000    0.00092827
     atom    3 type  1   force =     0.02244766    0.06903656    0.00092742
     atom    4 type  1   force =    -0.05873719    0.04260727    0.00092648
     atom    5 type  1   force =    -0.05873719   -0.04260727    0.00092648
     atom    6 type  1   force =     0.02244766   -0.06903656    0.00092742
     atom    7 type  3   force =    -0.00384923    0.00000000   -0.00099679
     atom    8 type  3   force =    -0.00118826   -0.00365777   -0.00099706
     atom    9 type  3   force =     0.00311553   -0.00226259   -0.00099707
     atom   10 type  3   force =     0.00311553    0.00226259   -0.00099707
     atom   11 type  3   force =    -0.00118826    0.00365777   -0.00099706
     atom   12 type  1   force =     0.05873719    0.04260727   -0.00092648
     atom   13 type  1   force =    -0.02244766    0.06903656   -0.00092742
     atom   14 type  1   force =    -0.07258109    0.00000000   -0.00092827
     atom   15 type  1   force =    -0.02244766   -0.06903656   -0.00092742
     atom   16 type  1   force =     0.05873719   -0.04260727   -0.00092648
     atom   17 type  3   force =    -0.00311553   -0.00226259    0.00099707
     atom   18 type  3   force =     0.00118826   -0.00365777    0.00099706
     atom   19 type  3   force =     0.00384923    0.00000000    0.00099679
     atom   20 type  3   force =     0.00118826    0.00365777    0.00099706
     atom   21 type  3   force =    -0.00311553    0.00226259    0.00099707

     Total force =     0.229879     Total SCF correction =     0.000102

     BFGS Geometry Optimization
     Energy error            =      5.3E-02 Ry
     Gradient error          =      7.3E-02 Ry/Bohr

     number of scf cycles    =   1
     number of bfgs steps    =   0

     energy             new  =    -525.3405905378 Ry

     new trust radius        =       0.0726003019 bohr
     new conv_thr            =       0.0000000100 Ry


ATOMIC_POSITIONS (angstrom)
Fe               8.2809111300        8.2809111300        8.2809111300
C                9.5102305203        8.2809111300        9.9414023472
C                8.6608017000        9.4500674931        9.9414018986
C                7.2863614074        9.0034579240        9.9414014037
C                7.2863614074        7.5583643360        9.9414014037
C                8.6608017000        7.1117547669        9.9414018986
H               10.5597853338        8.2809111300        9.9403836506
H                8.9851226304       10.4482509215        9.9403835076
H                6.4372639257        9.6203997478        9.9403835029
H                6.4372639257        6.9414225222        9.9403835029
H                8.9851226304        6.1135713485        9.9403835076
C                9.2754608626        9.0034579240        6.6204208563
C                7.9010205600        9.4500674931        6.6204203614
C                7.0515917397        8.2809111300        6.6204199128
C                7.9010205600        7.1117547669        6.6204203614
C                9.2754608626        7.5583643360        6.6204208563
H               10.1245583343        9.6203997478        6.6214387571
H                7.5766996296       10.4482509215        6.6214387524
H                6.0020369262        8.2809111300        6.6214386094
H                7.5766996296        6.1135713485        6.6214387524
H               10.1245583343        6.9414225222        6.6214387571



     Writing config-only to output data dir /home/duets/qe_workdirs/ferrocene__ring2_rotation_deg__+36/ferrocene__ring2_rotation_deg__+36.save/ :
     XML data file
     NEW-OLD atomic charge density approx. for the potential

     Check: negative core charge=   -0.000002

     negative rho (up, down):  1.319E-02 0.000E+00

     total cpu time spent up to now is      577.2 secs

     Self-consistent Calculation

     iteration #  1     ecut=    60.00 Ry     beta= 0.30
     Davidson diagonalization with overlap
     ethr =  1.00E-06,  avg # of iterations = 16.0

     negative rho (up, down):  1.320E-02 0.000E+00

     total cpu time spent up to now is      604.6 secs

     total energy              =    -525.33604183 Ry
     estimated scf accuracy    <       0.02583447 Ry

     iteration #  2     ecut=    60.00 Ry     beta= 0.30
     Davidson diagonalization with overlap
     ethr =  3.91E-05,  avg # of iterations =  2.0

     negative rho (up, down):  1.322E-02 0.000E+00

     total cpu time spent up to now is      621.0 secs

     total energy              =    -525.33584576 Ry
     estimated scf accuracy    <       0.00627154 Ry

     iteration #  3     ecut=    60.00 Ry     beta= 0.30
     Davidson diagonalization with overlap
     ethr =  9.50E-06,  avg # of iterations =  4.0

     negative rho (up, down):  1.325E-02 0.000E+00

     total cpu time spent up to now is      634.9 secs

     total energy              =    -525.33724672 Ry
     estimated scf accuracy    <       0.00219320 Ry

     iteration #  4     ecut=    60.00 Ry     beta= 0.30
     Davidson diagonalization with overlap
     ethr =  3.32E-06,  avg # of iterations =  4.0

     negative rho (up, down):  1.342E-02 0.000E+00

     total cpu time spent up to now is      648.5 secs

     total energy              =    -525.33726211 Ry
     estimated scf accuracy    <       0.00059671 Ry

     iteration #  5     ecut=    60.00 Ry     beta= 0.30
     Davidson diagonalization with overlap
     ethr =  9.04E-07,  avg # of iterations =  5.0

     negative rho (up, down):  1.334E-02 0.000E+00

     total cpu time spent up to now is      666.3 secs

     total energy              =    -525.33734422 Ry
     estimated scf accuracy    <       0.00060809 Ry

     iteration #  6     ecut=    60.00 Ry     beta= 0.30
     Davidson diagonalization with overlap
     ethr =  9.04E-07,  avg # of iterations =  2.0

     negative rho (up, down):  1.331E-02 0.000E+00

     total cpu time spent up to now is      679.5 secs

     total energy              =    -525.33733279 Ry
     estimated scf accuracy    <       0.00013859 Ry

     iteration #  7     ecut=    60.00 Ry     beta= 0.30
     Davidson diagonalization with overlap
     ethr =  2.10E-07,  avg # of iterations =  5.0

     negative rho (up, down):  1.331E-02 0.000E+00

     total cpu time spent up to now is      697.0 secs

     total energy              =    -525.33737260 Ry
     estimated scf accuracy    <       0.00001985 Ry

     iteration #  8     ecut=    60.00 Ry     beta= 0.30
     Davidson diagonalization with overlap
     ethr =  3.01E-08,  avg # of iterations =  7.0

     negative rho (up, down):  1.332E-02 0.000E+00

     total cpu time spent up to now is      712.5 secs

     total energy              =    -525.33737663 Ry
     estimated scf accuracy    <       0.00003395 Ry

     iteration #  9     ecut=    60.00 Ry     beta= 0.30
     Davidson diagonalization with overlap
     ethr =  3.01E-08,  avg # of iterations =  6.0

     negative rho (up, down):  1.332E-02 0.000E+00

     total cpu time spent up to now is      730.3 secs

     total energy              =    -525.33738626 Ry
     estimated scf accuracy    <       0.00004406 Ry

     iteration # 10     ecut=    60.00 Ry     beta= 0.30
     Davidson diagonalization with overlap
     ethr =  3.01E-08,  avg # of iterations =  2.0

     negative rho (up, down):  1.333E-02 0.000E+00

     total cpu time spent up to now is      743.7 secs

     total energy              =    -525.33738239 Ry
     estimated scf accuracy    <       0.00002251 Ry

     iteration # 11     ecut=    60.00 Ry     beta= 0.30
     Davidson diagonalization with overlap
     ethr =  3.01E-08,  avg # of iterations =  4.0

     negative rho (up, down):  1.333E-02 0.000E+00

     total cpu time spent up to now is      759.8 secs

     total energy              =    -525.33738347 Ry
     estimated scf accuracy    <       0.00000210 Ry

     iteration # 12     ecut=    60.00 Ry     beta= 0.30
     Davidson diagonalization with overlap
     ethr =  3.19E-09,  avg # of iterations =  5.0

     negative rho (up, down):  1.333E-02 0.000E+00

     total cpu time spent up to now is      775.1 secs

     total energy              =    -525.33738468 Ry
     estimated scf accuracy    <       0.00000030 Ry

     iteration # 13     ecut=    60.00 Ry     beta= 0.30
     Davidson diagonalization with overlap
     ethr =  4.58E-10,  avg # of iterations =  6.0

     negative rho (up, down):  1.333E-02 0.000E+00

     total cpu time spent up to now is      790.3 secs

     total energy              =    -525.33738485 Ry
     estimated scf accuracy    <       0.00000017 Ry

     iteration # 14     ecut=    60.00 Ry     beta= 0.30
     Davidson diagonalization with overlap
     ethr =  2.64E-10,  avg # of iterations =  2.0

     negative rho (up, down):  1.333E-02 0.000E+00

     total cpu time spent up to now is      806.8 secs

     total energy              =    -525.33738495 Ry
     estimated scf accuracy    <       0.00000014 Ry

     iteration # 15     ecut=    60.00 Ry     beta= 0.30
     Davidson diagonalization with overlap
     ethr =  2.14E-10,  avg # of iterations =  6.0

     negative rho (up, down):  1.333E-02 0.000E+00

     total cpu time spent up to now is      821.8 secs

     total energy              =    -525.33738511 Ry
     estimated scf accuracy    <       0.00000101 Ry

     iteration # 16     ecut=    60.00 Ry     beta= 0.30
     Davidson diagonalization with overlap
     ethr =  2.14E-10,  avg # of iterations =  1.0

     negative rho (up, down):  1.333E-02 0.000E+00

     total cpu time spent up to now is      837.9 secs

     total energy              =    -525.33738534 Ry
     estimated scf accuracy    <       0.00000105 Ry

     iteration # 17     ecut=    60.00 Ry     beta= 0.30
     Davidson diagonalization with overlap
     ethr =  2.14E-10,  avg # of iterations =  5.0

     negative rho (up, down):  1.333E-02 0.000E+00

     total cpu time spent up to now is      852.3 secs

     total energy              =    -525.33738474 Ry
     estimated scf accuracy    <       0.00000244 Ry

     iteration # 18     ecut=    60.00 Ry     beta= 0.30
     Davidson diagonalization with overlap
     ethr =  2.14E-10,  avg # of iterations =  5.0

     negative rho (up, down):  1.334E-02 0.000E+00

     total cpu time spent up to now is      870.3 secs

     total energy              =    -525.33738495 Ry
     estimated scf accuracy    <       0.00000039 Ry

     iteration # 19     ecut=    60.00 Ry     beta= 0.30
     Davidson diagonalization with overlap
     ethr =  2.14E-10,  avg # of iterations =  9.0

     negative rho (up, down):  1.334E-02 0.000E+00

     total cpu time spent up to now is      888.7 secs

     total energy              =    -525.33738523 Ry
     estimated scf accuracy    <       0.00000527 Ry

     iteration # 20     ecut=    60.00 Ry     beta= 0.30
     Davidson diagonalization with overlap
     ethr =  2.14E-10,  avg # of iterations =  5.0

     negative rho (up, down):  1.333E-02 0.000E+00

     total cpu time spent up to now is      906.5 secs

     total energy              =    -525.33738445 Ry
     estimated scf accuracy    <       0.00000217 Ry

     iteration # 21     ecut=    60.00 Ry     beta= 0.30
     Davidson diagonalization with overlap
     ethr =  2.14E-10,  avg # of iterations =  7.0

     negative rho (up, down):  1.333E-02 0.000E+00

     total cpu time spent up to now is      923.2 secs

     total energy              =    -525.33738481 Ry
     estimated scf accuracy    <       0.00000001 Ry

     iteration # 22     ecut=    60.00 Ry     beta= 0.30
     Davidson diagonalization with overlap
     ethr =  1.82E-11,  avg # of iterations =  6.0

     negative rho (up, down):  1.333E-02 0.000E+00

     total cpu time spent up to now is      942.1 secs

     End of self-consistent calculation

          k = 0.0000 0.0000 0.0000 (120209 PWs)   bands (ev):

   -90.0745 -56.8652 -55.8538 -55.8537 -21.9151 -21.4838 -17.4925 -17.4922
   -17.4819 -17.4816 -13.4837 -13.4836 -13.3019 -13.3018 -13.2367 -12.9287
   -10.0210 -10.0208 -10.0092  -9.6964  -9.6962  -9.1317  -9.1315  -9.1148
    -9.1146  -8.6592  -6.5684  -6.5681  -6.1265  -6.1262  -4.3950  -4.2270
    -4.2269

     highest occupied level (ev):    -4.2269

!    total energy              =    -525.33738482 Ry
     estimated scf accuracy    <          3.0E-09 Ry

     The total energy is the sum of the following terms:
     one-electron contribution =   -2324.15337829 Ry
     hartree contribution      =    1166.28758611 Ry
     xc contribution           =     -88.33812289 Ry
     ewald contribution        =     858.68182380 Ry
     one-center paw contrib.   =    -137.81529355 Ry

     convergence has been achieved in  22 iterations

     negative rho (up, down):  1.333E-02 0.000E+00

     Forces acting on atoms (cartesian axes, Ry/au):

     atom    1 type  2   force =     0.00000000    0.00000000    0.00000000
     atom    2 type  1   force =    -0.07777392    0.00000000   -0.00170336
     atom    3 type  1   force =    -0.02399729   -0.07402325   -0.00170707
     atom    4 type  1   force =     0.06293690   -0.04565208   -0.00170582
     atom    5 type  1   force =     0.06293690    0.04565208   -0.00170582
     atom    6 type  1   force =    -0.02399729    0.07402325   -0.00170707
     atom    7 type  3   force =     0.05416467    0.00000000   -0.00198498
     atom    8 type  3   force =     0.01673777    0.05151827   -0.00198406
     atom    9 type  3   force =    -0.04380859    0.03182570   -0.00198467
     atom   10 type  3   force =    -0.04380859   -0.03182570   -0.00198467
     atom   11 type  3   force =     0.01673777   -0.05151827   -0.00198406
     atom   12 type  1   force =    -0.06293690   -0.04565208    0.00170582
     atom   13 type  1   force =     0.02399729   -0.07402325    0.00170707
     atom   14 type  1   force =     0.07777392    0.00000000    0.00170336
     atom   15 type  1   force =     0.02399729    0.07402325    0.00170707
     atom   16 type  1   force =    -0.06293690    0.04565208    0.00170582
     atom   17 type  3   force =     0.04380859    0.03182570    0.00198467
     atom   18 type  3   force =    -0.01673777    0.05151827    0.00198406
     atom   19 type  3   force =    -0.05416467    0.00000000    0.00198498
     atom   20 type  3   force =    -0.01673777   -0.05151827    0.00198406
     atom   21 type  3   force =     0.04380859   -0.03182570    0.00198467

     Total force =     0.299835     Total SCF correction =     0.000132
     Energy error            =      3.2E-03 Ry
     Gradient error          =      7.8E-02 Ry/Bohr

     number of scf cycles    =   2
     number of bfgs steps    =   1

     energy             old  =    -525.3405905378 Ry
     energy             new  =    -525.3373848232 Ry

     CASE: energy            _new > energy            _old

     new trust radius        =       0.0342240025 bohr
     new conv_thr            =       0.0000000100 Ry


ATOMIC_POSITIONS (angstrom)
Fe               8.2809111300        8.2809111300        8.2809111300
C                9.4899280304        8.2809111300        9.9411426913
C                8.6545226076        9.4307564857        9.9411424798
C                7.3027914606        8.9915397571        9.9411422465
C                7.3027914606        7.5702825029        9.9411422465
C                8.6545226076        7.1310657743        9.9411424798
H               10.5608620468        8.2809111300        9.9406624746
H                8.9854550120       10.4492740783        9.9406624072
H                6.4363924460        9.6210326434        9.9406624050
H                6.4363924460        6.9407896266        9.9406624050
H                8.9854550120        6.1125481917        9.9406624072
C                9.2590308094        8.9915397571        6.6206800135
C                7.9072996524        9.4307564857        6.6206797802
C                7.0718942296        8.2809111300        6.6206795687
C                7.9072996524        7.1310657743        6.6206797802
C                9.2590308094        7.5702825029        6.6206800135
H               10.1254298140        9.6210326434        6.6211598550
H                7.5763672480       10.4492740783        6.6211598528
H                6.0009602132        8.2809111300        6.6211597854
H                7.5763672480        6.1125481917        6.6211598528
H               10.1254298140        6.9407896266        6.6211598550



     Writing config-only to output data dir /home/duets/qe_workdirs/ferrocene__ring2_rotation_deg__+36/ferrocene__ring2_rotation_deg__+36.save/ :
     XML data file
     NEW-OLD atomic charge density approx. for the potential

     Check: negative core charge=   -0.000002

     negative rho (up, down):  1.338E-02 0.000E+00

     total cpu time spent up to now is      957.6 secs

     Self-consistent Calculation

     iteration #  1     ecut=    60.00 Ry     beta= 0.30
     Davidson diagonalization with overlap
     ethr =  1.00E-06,  avg # of iterations = 13.0

     negative rho (up, down):  1.338E-02 0.000E+00

     total cpu time spent up to now is      982.9 secs

     total energy              =    -525.35259995 Ry
     estimated scf accuracy    <       0.00705392 Ry

     iteration #  2     ecut=    60.00 Ry     beta= 0.30
     Davidson diagonalization with overlap
     ethr =  1.07E-05,  avg # of iterations =  2.0

     negative rho (up, down):  1.338E-02 0.000E+00

     total cpu time spent up to now is      995.9 secs

     total energy              =    -525.35246673 Ry
     estimated scf accuracy    <       0.00164794 Ry

     iteration #  3     ecut=    60.00 Ry     beta= 0.30
     Davidson diagonalization with overlap
     ethr =  2.50E-06,  avg # of iterations =  3.0

     negative rho (up, down):  1.337E-02 0.000E+00

     total cpu time spent up to now is     1013.4 secs

     total energy              =    -525.35292748 Ry
     estimated scf accuracy    <       0.00038504 Ry

     iteration #  4     ecut=    60.00 Ry     beta= 0.30
     Davidson diagonalization with overlap
     ethr =  5.83E-07,  avg # of iterations =  4.0

     negative rho (up, down):  1.337E-02 0.000E+00

     total cpu time spent up to now is     1027.2 secs

     total energy              =    -525.35291581 Ry
     estimated scf accuracy    <       0.00020003 Ry

     iteration #  5     ecut=    60.00 Ry     beta= 0.30
     Davidson diagonalization with overlap
     ethr =  3.03E-07,  avg # of iterations =  6.0

     negative rho (up, down):  1.337E-02 0.000E+00

     total cpu time spent up to now is     1045.4 secs

     total energy              =    -525.35288092 Ry
     estimated scf accuracy    <       0.00050348 Ry

     iteration #  6     ecut=    60.00 Ry     beta= 0.30
     Davidson diagonalization with overlap
     ethr =  3.03E-07,  avg # of iterations =  3.0

     negative rho (up, down):  1.336E-02 0.000E+00

     total cpu time spent up to now is     1059.3 secs

     total energy              =    -525.35292461 Ry
     estimated scf accuracy    <       0.00003882 Ry

     iteration #  7     ecut=    60.00 Ry     beta= 0.30
     Davidson diagonalization with overlap
     ethr =  5.88E-08,  avg # of iterations =  5.0

     negative rho (up, down):  1.336E-02 0.000E+00

     total cpu time spent up to now is     1077.6 secs

     total energy              =    -525.35294783 Ry
     estimated scf accuracy    <       0.00000402 Ry

     iteration #  8     ecut=    60.00 Ry     beta= 0.30
     Davidson diagonalization with overlap
     ethr =  6.08E-09,  avg # of iterations =  5.0

     negative rho (up, down):  1.335E-02 0.000E+00

     total cpu time spent up to now is     1092.5 secs

     total energy              =    -525.35294788 Ry
     estimated scf accuracy    <       0.00000635 Ry

     iteration #  9     ecut=    60.00 Ry     beta= 0.30
     Davidson diagonalization with overlap
     ethr =  6.08E-09,  avg # of iterations =  5.0

     negative rho (up, down):  1.335E-02 0.000E+00

     total cpu time spent up to now is     1106.7 secs

     total energy              =    -525.35294684 Ry
     estimated scf accuracy    <       0.00000584 Ry

     iteration # 10     ecut=    60.00 Ry     beta= 0.30
     Davidson diagonalization with overlap
     ethr =  6.08E-09,  avg # of iterations =  5.0

     negative rho (up, down):  1.335E-02 0.000E+00

     total cpu time spent up to now is     1123.7 secs

     total energy              =    -525.35294738 Ry
     estimated scf accuracy    <       0.00000052 Ry

     iteration # 11     ecut=    60.00 Ry     beta= 0.30
     Davidson diagonalization with overlap
     ethr =  7.82E-10,  avg # of iterations =  6.0

     negative rho (up, down):  1.335E-02 0.000E+00

     total cpu time spent up to now is     1139.1 secs

     total energy              =    -525.35294770 Ry
     estimated scf accuracy    <       0.00000016 Ry

     iteration # 12     ecut=    60.00 Ry     beta= 0.30
     Davidson diagonalization with overlap
     ethr =  2.46E-10,  avg # of iterations =  4.0

     negative rho (up, down):  1.335E-02 0.000E+00

     total cpu time spent up to now is     1156.4 secs

     total energy              =    -525.35294771 Ry
     estimated scf accuracy    <       0.00000005 Ry

     iteration # 13     ecut=    60.00 Ry     beta= 0.30
     Davidson diagonalization with overlap
     ethr =  7.82E-11,  avg # of iterations =  5.0

     negative rho (up, down):  1.335E-02 0.000E+00

     total cpu time spent up to now is     1171.0 secs

     total energy              =    -525.35294773 Ry
     estimated scf accuracy    <       0.00000004 Ry

     iteration # 14     ecut=    60.00 Ry     beta= 0.30
     Davidson diagonalization with overlap
     ethr =  5.83E-11,  avg # of iterations =  1.0

     negative rho (up, down):  1.335E-02 0.000E+00

     total cpu time spent up to now is     1187.2 secs

     total energy              =    -525.35294772 Ry
     estimated scf accuracy    <       0.00000003 Ry

     iteration # 15     ecut=    60.00 Ry     beta= 0.30
     Davidson diagonalization with overlap
     ethr =  4.08E-11,  avg # of iterations =  6.0

     negative rho (up, down):  1.335E-02 0.000E+00

     total cpu time spent up to now is     1201.4 secs

     total energy              =    -525.35294772 Ry
     estimated scf accuracy    <       0.00000005 Ry

     iteration # 16     ecut=    60.00 Ry     beta= 0.30
     Davidson diagonalization with overlap
     ethr =  4.08E-11,  avg # of iterations =  5.0

     negative rho (up, down):  1.335E-02 0.000E+00

     total cpu time spent up to now is     1218.1 secs

     End of self-consistent calculation

          k = 0.0000 0.0000 0.0000 (120209 PWs)   bands (ev):

   -90.0611 -56.8979 -55.8248 -55.8247 -22.2694 -21.8322 -17.5677 -17.5675
   -17.5415 -17.5414 -13.3842 -13.3842 -13.2308 -13.1945 -13.1945 -12.9183
   -10.2184  -9.9569  -9.9568  -9.6379  -9.6378  -9.1338  -9.1337  -9.1069
    -9.1068  -8.8826  -6.6517  -6.6516  -6.1669  -6.1668  -4.4143  -4.1960
    -4.1959

     highest occupied level (ev):    -4.1959

!    total energy              =    -525.35294773 Ry
     estimated scf accuracy    <          7.5E-10 Ry

     The total energy is the sum of the following terms:
     one-electron contribution =   -2333.77487731 Ry
     hartree contribution      =    1171.10210091 Ry
     xc contribution           =     -88.44329420 Ry
     ewald contribution        =     863.58385637 Ry
     one-center paw contrib.   =    -137.82073349 Ry

     convergence has been achieved in  16 iterations

     negative rho (up, down):  1.335E-02 0.000E+00

     Forces acting on atoms (cartesian axes, Ry/au):

     atom    1 type  2   force =     0.00000000    0.00000000    0.00000000
     atom    2 type  1   force =     0.00089646    0.00000000   -0.00036327
     atom    3 type  1   force =     0.00029212    0.00076971   -0.00036545
     atom    4 type  1   force =    -0.00071742    0.00048918   -0.00036497
     atom    5 type  1   force =    -0.00071742   -0.00048918   -0.00036497
     atom    6 type  1   force =     0.00029212   -0.00076971   -0.00036545
     atom    7 type  3   force =     0.02174010    0.00000000   -0.00144735
     atom    8 type  3   force =     0.00671737    0.02067650   -0.00144705
     atom    9 type  3   force =    -0.01758055    0.01277224   -0.00144737
     atom   10 type  3   force =    -0.01758055   -0.01277224   -0.00144737
     atom   11 type  3   force =     0.00671737   -0.02067650   -0.00144705
     atom   12 type  1   force =     0.00071742    0.00048918    0.00036497
     atom   13 type  1   force =    -0.00029212    0.00076971    0.00036545
     atom   14 type  1   force =    -0.00089646    0.00000000    0.00036327
     atom   15 type  1   force =    -0.00029212   -0.00076971    0.00036545
     atom   16 type  1   force =     0.00071742   -0.00048918    0.00036497
     atom   17 type  3   force =     0.01758055    0.01277224    0.00144737
     atom   18 type  3   force =    -0.00671737    0.02067650    0.00144705
     atom   19 type  3   force =    -0.02174010    0.00000000    0.00144735
     atom   20 type  3   force =    -0.00671737   -0.02067650    0.00144705
     atom   21 type  3   force =     0.01758055   -0.01277224    0.00144737

     Total force =     0.068951     Total SCF correction =     0.000072
     Energy error            =      1.2E-02 Ry
     Gradient error          =      2.2E-02 Ry/Bohr

     number of scf cycles    =   3
     number of bfgs steps    =   1

     energy             old  =    -525.3405905378 Ry
     energy             new  =    -525.3529477277 Ry

     CASE: energy            _new < energy            _old

     new trust radius        =       0.0213603631 bohr
     new conv_thr            =       0.0000000100 Ry


ATOMIC_POSITIONS (angstrom)
Fe               8.2809111300        8.2809111300        8.2809111300
C                9.4939072141        8.2809111300        9.9409960473
C                8.6557611158        9.4344976049        9.9409946418
C                7.2995755019        8.9938561150        9.9409946192
C                7.2995755019        7.5679661450        9.9409946192
C                8.6557611158        7.1273246551        9.9409946418
H               10.5721360693        8.2809111300        9.9398513652
H                8.9889385725       10.4599966894        9.9398514439
H                6.4272756227        9.6276560387        9.9398512719
H                6.4272756227        6.9341662313        9.9398512719
H                8.9889385725        6.1018255806        9.9398514439
C                9.2622467681        8.9938561150        6.6208276408
C                7.9060611442        9.4344976049        6.6208276182
C                7.0679150459        8.2809111300        6.6208262127
C                7.9060611442        7.1273246551        6.6208276182
C                9.2622467681        7.5679661450        6.6208276408
H               10.1345466373        9.6276560387        6.6219709881
H                7.5728836875       10.4599966894        6.6219708161
H                5.9896861907        8.2809111300        6.6219708948
H                7.5728836875        6.1018255806        6.6219708161
H               10.1345466373        6.9341662313        6.6219709881



     Writing config-only to output data dir /home/duets/qe_workdirs/ferrocene__ring2_rotation_deg__+36/ferrocene__ring2_rotation_deg__+36.save/ :
     XML data file
     NEW-OLD atomic charge density approx. for the potential

     Check: negative core charge=   -0.000002

     negative rho (up, down):  1.325E-02 0.000E+00

     total cpu time spent up to now is     1233.8 secs

     Self-consistent Calculation

     iteration #  1     ecut=    60.00 Ry     beta= 0.30
     Davidson diagonalization with overlap
     ethr =  1.00E-06,  avg # of iterations =  8.0

     negative rho (up, down):  1.326E-02 0.000E+00

     total cpu time spent up to now is     1255.1 secs

     total energy              =    -525.35650170 Ry
     estimated scf accuracy    <       0.00097382 Ry

     iteration #  2     ecut=    60.00 Ry     beta= 0.30
     Davidson diagonalization with overlap
     ethr =  1.48E-06,  avg # of iterations =  4.0

     negative rho (up, down):  1.327E-02 0.000E+00

     total cpu time spent up to now is     1268.7 secs

     total energy              =    -525.35646840 Ry
     estimated scf accuracy    <       0.00054418 Ry

     iteration #  3     ecut=    60.00 Ry     beta= 0.30
     Davidson diagonalization with overlap
     ethr =  8.25E-07,  avg # of iterations =  5.0

     negative rho (up, down):  1.328E-02 0.000E+00

     total cpu time spent up to now is     1282.4 secs

     total energy              =    -525.35649832 Ry
     estimated scf accuracy    <       0.00037840 Ry

     iteration #  4     ecut=    60.00 Ry     beta= 0.30
     Davidson diagonalization with overlap
     ethr =  5.73E-07,  avg # of iterations =  4.0

     negative rho (up, down):  1.330E-02 0.000E+00

     total cpu time spent up to now is     1299.5 secs

     total energy              =    -525.35655677 Ry
     estimated scf accuracy    <       0.00001891 Ry

     iteration #  5     ecut=    60.00 Ry     beta= 0.30
     Davidson diagonalization with overlap
     ethr =  2.86E-08,  avg # of iterations =  6.0

     negative rho (up, down):  1.330E-02 0.000E+00

     total cpu time spent up to now is     1314.5 secs

     total energy              =    -525.35656385 Ry
     estimated scf accuracy    <       0.00005285 Ry

     iteration #  6     ecut=    60.00 Ry     beta= 0.30
     Davidson diagonalization with overlap
     ethr =  2.86E-08,  avg # of iterations =  5.0

     negative rho (up, down):  1.330E-02 0.000E+00

     total cpu time spent up to now is     1331.7 secs

     total energy              =    -525.35656887 Ry
     estimated scf accuracy    <       0.00000546 Ry

     iteration #  7     ecut=    60.00 Ry     beta= 0.30
     Davidson diagonalization with overlap
     ethr =  8.28E-09,  avg # of iterations =  7.0

     negative rho (up, down):  1.330E-02 0.000E+00

     total cpu time spent up to now is     1346.6 secs

     total energy              =    -525.35656932 Ry
     estimated scf accuracy    <       0.00001476 Ry

     iteration #  8     ecut=    60.00 Ry     beta= 0.30
     Davidson diagonalization with overlap
     ethr =  8.28E-09,  avg # of iterations =  5.0

     negative rho (up, down):  1.330E-02 0.000E+00

     total cpu time spent up to now is     1363.7 secs

     total energy              =    -525.35657093 Ry
     estimated scf accuracy    <       0.00000056 Ry

     iteration #  9     ecut=    60.00 Ry     beta= 0.30
     Davidson diagonalization with overlap
     ethr =  8.55E-10,  avg # of iterations =  7.0

     negative rho (up, down):  1.330E-02 0.000E+00

     total cpu time spent up to now is     1379.1 secs

     total energy              =    -525.35657125 Ry
     estimated scf accuracy    <       0.00000032 Ry

     iteration # 10     ecut=    60.00 Ry     beta= 0.30
     Davidson diagonalization with overlap
     ethr =  4.79E-10,  avg # of iterations =  2.0

     negative rho (up, down):  1.330E-02 0.000E+00

     total cpu time spent up to now is     1395.3 secs

     total energy              =    -525.35657123 Ry
     estimated scf accuracy    <       0.00000023 Ry

     iteration # 11     ecut=    60.00 Ry     beta= 0.30
     Davidson diagonalization with overlap
     ethr =  3.48E-10,  avg # of iterations =  4.0

     negative rho (up, down):  1.330E-02 0.000E+00

     total cpu time spent up to now is     1409.0 secs

     End of self-consistent calculation

          k = 0.0000 0.0000 0.0000 (120209 PWs)   bands (ev):

   -90.0704 -56.8999 -55.8362 -55.8361 -22.2079 -21.7709 -17.5342 -17.5336
   -17.5093 -17.5087 -13.3541 -13.3541 -13.1749 -13.1627 -13.1627 -12.8604
   -10.1843  -9.9371  -9.9365  -9.6207  -9.6201  -9.1184  -9.1184  -9.0913
    -9.0912  -8.8454  -6.6420  -6.6416  -6.1640  -6.1635  -4.4187  -4.2069
    -4.2068

     highest occupied level (ev):    -4.2068

!    total energy              =    -525.35657125 Ry
     estimated scf accuracy    <          7.1E-09 Ry

     The total energy is the sum of the following terms:
     one-electron contribution =   -2330.17201657 Ry
     hartree contribution      =    1169.28331234 Ry
     xc contribution           =     -88.33908140 Ry
     ewald contribution        =     861.68841004 Ry
     one-center paw contrib.   =    -137.81719566 Ry

     convergence has been achieved in  11 iterations

     negative rho (up, down):  1.330E-02 0.000E+00

     Forces acting on atoms (cartesian axes, Ry/au):

     atom    1 type  2   force =     0.00000000    0.00000000    0.00000000
     atom    2 type  1   force =     0.00163316    0.00000000   -0.00073687
     atom    3 type  1   force =     0.00050849    0.00155018   -0.00073814
     atom    4 type  1   force =    -0.00129380    0.00096264   -0.00073814
     atom    5 type  1   force =    -0.00129380   -0.00096264   -0.00073814
     atom    6 type  1   force =     0.00050849   -0.00155018   -0.00073814
     atom    7 type  3   force =     0.01128526    0.00000000   -0.00145725
     atom    8 type  3   force =     0.00347245    0.01068371   -0.00145651
     atom    9 type  3   force =    -0.00911073    0.00662036   -0.00145685
     atom   10 type  3   force =    -0.00911073   -0.00662036   -0.00145685
     atom   11 type  3   force =     0.00347245   -0.01068371   -0.00145651
     atom   12 type  1   force =     0.00129380    0.00096264    0.00073814
     atom   13 type  1   force =    -0.00050849    0.00155018    0.00073814
     atom   14 type  1   force =    -0.00163316    0.00000000    0.00073687
     atom   15 type  1   force =    -0.00050849   -0.00155018    0.00073814
     atom   16 type  1   force =     0.00129380   -0.00096264    0.00073814
     atom   17 type  3   force =     0.00911073    0.00662036    0.00145685
     atom   18 type  3   force =    -0.00347245    0.01068371    0.00145651
     atom   19 type  3   force =    -0.01128526    0.00000000    0.00145725
     atom   20 type  3   force =    -0.00347245   -0.01068371    0.00145651
     atom   21 type  3   force =     0.00911073   -0.00662036    0.00145685

     Total force =     0.036330     Total SCF correction =     0.000097
     Energy error            =      3.6E-03 Ry
     Gradient error          =      1.1E-02 Ry/Bohr

     number of scf cycles    =   4
     number of bfgs steps    =   2

     energy             old  =    -525.3529477277 Ry
     energy             new  =    -525.3565712546 Ry

     CASE: energy            _new < energy            _old

     new trust radius        =       0.0234963994 bohr
     new conv_thr            =       0.0000000100 Ry


ATOMIC_POSITIONS (angstrom)
Fe               8.2809111300        8.2809111300        8.2809111300
C                9.4988534053        8.2809111300        9.9402443438
C                8.6572948000        9.4391969688        9.9402414960
C                7.2956025686        8.9967630322        9.9402414474
C                7.2956025686        7.5650592278        9.9402414474
C                8.6572948000        7.1226252912        9.9402414960
H               10.5844628968        8.2809111300        9.9382241931
H                8.9927319626       10.4716679622        9.9382250486
H                6.4173237158        9.6348876348        9.9382245128
H                6.4173237158        6.9269346352        9.9382245128
H                8.9927319626        6.0901543078        9.9382250486
C                9.2662197014        8.9967630322        6.6215808126
C                7.9045274600        9.4391969688        6.6215807640
C                7.0629688547        8.2809111300        6.6215779162
C                7.9045274600        7.1226252912        6.6215807640
C                9.2662197014        7.5650592278        6.6215808126
H               10.1444985442        9.6348876348        6.6235977472
H                7.5690902974       10.4716679622        6.6235972114
H                5.9773593632        8.2809111300        6.6235980669
H                7.5690902974        6.0901543078        6.6235972114
H               10.1444985442        6.9269346352        6.6235977472



     Writing config-only to output data dir /home/duets/qe_workdirs/ferrocene__ring2_rotation_deg__+36/ferrocene__ring2_rotation_deg__+36.save/ :
     XML data file
     NEW-OLD atomic charge density approx. for the potential

     Check: negative core charge=   -0.000002

     negative rho (up, down):  1.319E-02 0.000E+00

     total cpu time spent up to now is     1424.5 secs

     Self-consistent Calculation

     iteration #  1     ecut=    60.00 Ry     beta= 0.30
     Davidson diagonalization with overlap
     ethr =  1.00E-06,  avg # of iterations =  9.0

     negative rho (up, down):  1.321E-02 0.000E+00

     total cpu time spent up to now is     1446.0 secs

     total energy              =    -525.35804859 Ry
     estimated scf accuracy    <       0.00121609 Ry

     iteration #  2     ecut=    60.00 Ry     beta= 0.30
     Davidson diagonalization with overlap
     ethr =  1.84E-06,  avg # of iterations =  4.0

     negative rho (up, down):  1.321E-02 0.000E+00

     total cpu time spent up to now is     1459.2 secs

     total energy              =    -525.35801244 Ry
     estimated scf accuracy    <       0.00057593 Ry

     iteration #  3     ecut=    60.00 Ry     beta= 0.30
     Davidson diagonalization with overlap
     ethr =  8.73E-07,  avg # of iterations =  5.0

     negative rho (up, down):  1.323E-02 0.000E+00

     total cpu time spent up to now is     1476.2 secs

     total energy              =    -525.35804375 Ry
     estimated scf accuracy    <       0.00045534 Ry

     iteration #  4     ecut=    60.00 Ry     beta= 0.30
     Davidson diagonalization with overlap
     ethr =  6.90E-07,  avg # of iterations =  4.0

     negative rho (up, down):  1.324E-02 0.000E+00

     total cpu time spent up to now is     1490.1 secs

     total energy              =    -525.35812242 Ry
     estimated scf accuracy    <       0.00002718 Ry

     iteration #  5     ecut=    60.00 Ry     beta= 0.30
     Davidson diagonalization with overlap
     ethr =  4.12E-08,  avg # of iterations =  5.0

     negative rho (up, down):  1.325E-02 0.000E+00

     total cpu time spent up to now is     1507.8 secs

     total energy              =    -525.35813420 Ry
     estimated scf accuracy    <       0.00000468 Ry

     iteration #  6     ecut=    60.00 Ry     beta= 0.30
     Davidson diagonalization with overlap
     ethr =  7.09E-09,  avg # of iterations =  6.0

     negative rho (up, down):  1.325E-02 0.000E+00

     total cpu time spent up to now is     1522.7 secs

     total energy              =    -525.35813524 Ry
     estimated scf accuracy    <       0.00000181 Ry

     iteration #  7     ecut=    60.00 Ry     beta= 0.30
     Davidson diagonalization with overlap
     ethr =  2.75E-09,  avg # of iterations =  7.0

     negative rho (up, down):  1.325E-02 0.000E+00

     total cpu time spent up to now is     1542.0 secs

     total energy              =    -525.35813554 Ry
     estimated scf accuracy    <       0.00000679 Ry

     iteration #  8     ecut=    60.00 Ry     beta= 0.30
     Davidson diagonalization with overlap
     ethr =  2.75E-09,  avg # of iterations =  4.0

     negative rho (up, down):  1.325E-02 0.000E+00

     total cpu time spent up to now is     1556.6 secs

     total energy              =    -525.35813548 Ry
     estimated scf accuracy    <       0.00000135 Ry

     iteration #  9     ecut=    60.00 Ry     beta= 0.30
     Davidson diagonalization with overlap
     ethr =  2.05E-09,  avg # of iterations =  5.0

     negative rho (up, down):  1.325E-02 0.000E+00

     total cpu time spent up to now is     1573.8 secs

     total energy              =    -525.35813597 Ry
     estimated scf accuracy    <       0.00000028 Ry

     iteration # 10     ecut=    60.00 Ry     beta= 0.30
     Davidson diagonalization with overlap
     ethr =  4.29E-10,  avg # of iterations =  5.0

     negative rho (up, down):  1.325E-02 0.000E+00

     total cpu time spent up to now is     1587.7 secs

     End of self-consistent calculation

          k = 0.0000 0.0000 0.0000 (120209 PWs)   bands (ev):

   -90.0809 -56.9011 -55.8499 -55.8498 -22.1309 -21.6934 -17.4952 -17.4949
   -17.4722 -17.4718 -13.3243 -13.3241 -13.1308 -13.1307 -13.1148 -12.7976
   -10.1411  -9.9176  -9.9173  -9.6032  -9.6028  -9.1018  -9.1018  -9.0745
    -9.0745  -8.7970  -6.6287  -6.6284  -6.1598  -6.1595  -4.4230  -4.2209
    -4.2209

     highest occupied level (ev):    -4.2209

!    total energy              =    -525.35813604 Ry
     estimated scf accuracy    <          3.1E-09 Ry

     The total energy is the sum of the following terms:
     one-electron contribution =   -2326.22584030 Ry
     hartree contribution      =    1167.28921179 Ry
     xc contribution           =     -88.22372300 Ry
     ewald contribution        =     859.61551083 Ry
     one-center paw contrib.   =    -137.81329536 Ry

     convergence has been achieved in  10 iterations

     negative rho (up, down):  1.325E-02 0.000E+00

     Forces acting on atoms (cartesian axes, Ry/au):

     atom    1 type  2   force =     0.00000000    0.00000000    0.00000000
     atom    2 type  1   force =     0.00010861    0.00000000   -0.00110545
     atom    3 type  1   force =     0.00004265    0.00004283   -0.00110356
     atom    4 type  1   force =    -0.00008119    0.00006188   -0.00110233
     atom    5 type  1   force =    -0.00008119   -0.00006188   -0.00110233
     atom    6 type  1   force =     0.00004265   -0.00004283   -0.00110356
     atom    7 type  3   force =     0.00111880    0.00000000   -0.00146727
     atom    8 type  3   force =     0.00035432    0.00108139   -0.00146682
     atom    9 type  3   force =    -0.00088842    0.00064776   -0.00146625
     atom   10 type  3   force =    -0.00088842   -0.00064776   -0.00146625
     atom   11 type  3   force =     0.00035432   -0.00108139   -0.00146682
     atom   12 type  1   force =     0.00008119    0.00006188    0.00110233
     atom   13 type  1   force =    -0.00004265    0.00004283    0.00110356
     atom   14 type  1   force =    -0.00010861    0.00000000    0.00110545
     atom   15 type  1   force =    -0.00004265   -0.00004283    0.00110356
     atom   16 type  1   force =     0.00008119   -0.00006188    0.00110233
     atom   17 type  3   force =     0.00088842    0.00064776    0.00146625
     atom   18 type  3   force =    -0.00035432    0.00108139    0.00146682
     atom   19 type  3   force =    -0.00111880    0.00000000    0.00146727
     atom   20 type  3   force =    -0.00035432   -0.00108139    0.00146682
     atom   21 type  3   force =     0.00088842   -0.00064776    0.00146625

     Total force =     0.006803     Total SCF correction =     0.000054
     Energy error            =      1.6E-03 Ry
     Gradient error          =      1.5E-03 Ry/Bohr

     number of scf cycles    =   5
     number of bfgs steps    =   3

     energy             old  =    -525.3565712546 Ry
     energy             new  =    -525.3581360371 Ry

     CASE: energy            _new < energy            _old

     new trust radius        =       0.0036562360 bohr
     new conv_thr            =       0.0000000015 Ry


ATOMIC_POSITIONS (angstrom)
Fe               8.2809111300        8.2809111300        8.2809111300
C                9.4995204202        8.2809111300        9.9395295485
C                8.6575068720        9.4397944271        9.9395277160
C                7.2950689794        8.9971535328        9.9395284002
C                7.2950689794        7.5646687272        9.9395284002
C                8.6575068720        7.1220278329        9.9395277160
H               10.5861082643        8.2809111300        9.9372182360
H                8.9932444142       10.4732394368        9.9372194148
H                6.4160041232        9.6358478225        9.9372191917
H                6.4160041232        6.9259744475        9.9372191917
H                8.9932444142        6.0885828332        9.9372194148
C                9.2667532906        8.9971535328        6.6222938598
C                7.9043153880        9.4397944271        6.6222945440
C                7.0623018398        8.2809111300        6.6222927115
C                7.9043153880        7.1220278329        6.6222945440
C                9.2667532906        7.5646687272        6.6222938598
H               10.1458181368        9.6358478225        6.6246030683
H                7.5685778458       10.4732394368        6.6246028452
H                5.9757139957        8.2809111300        6.6246040240
H                7.5685778458        6.0885828332        6.6246028452
H               10.1458181368        6.9259744475        6.6246030683



     Writing config-only to output data dir /home/duets/qe_workdirs/ferrocene__ring2_rotation_deg__+36/ferrocene__ring2_rotation_deg__+36.save/ :
     XML data file
     NEW-OLD atomic charge density approx. for the potential

     Check: negative core charge=   -0.000002

     negative rho (up, down):  1.324E-02 0.000E+00

     total cpu time spent up to now is     1605.9 secs

     Self-consistent Calculation

     iteration #  1     ecut=    60.00 Ry     beta= 0.30
     Davidson diagonalization with overlap
     ethr =  1.00E-06,  avg # of iterations =  3.0

     Threshold (ethr) on eigenvalues was too large:
     Diagonalizing with lowered threshold

     Davidson diagonalization with overlap
     ethr =  1.18E-08,  avg # of iterations =  9.0

     negative rho (up, down):  1.324E-02 0.000E+00

     total cpu time spent up to now is     1632.2 secs

     total energy              =    -525.35819077 Ry
     estimated scf accuracy    <       0.00002308 Ry

     iteration #  2     ecut=    60.00 Ry     beta= 0.30
     Davidson diagonalization with overlap
     ethr =  3.50E-08,  avg # of iterations =  2.0

     negative rho (up, down):  1.324E-02 0.000E+00

     total cpu time spent up to now is     1648.0 secs

     total energy              =    -525.35819004 Ry
     estimated scf accuracy    <       0.00000823 Ry

     iteration #  3     ecut=    60.00 Ry     beta= 0.30
     Davidson diagonalization with overlap
     ethr =  1.25E-08,  avg # of iterations =  4.0

     negative rho (up, down):  1.324E-02 0.000E+00

     total cpu time spent up to now is     1661.9 secs

     total energy              =    -525.35819123 Ry
     estimated scf accuracy    <       0.00000249 Ry

     iteration #  4     ecut=    60.00 Ry     beta= 0.30
     Davidson diagonalization with overlap
     ethr =  3.77E-09,  avg # of iterations =  5.0

     negative rho (up, down):  1.324E-02 0.000E+00

     total cpu time spent up to now is     1679.4 secs

     total energy              =    -525.35819167 Ry
     estimated scf accuracy    <       0.00000082 Ry

     iteration #  5     ecut=    60.00 Ry     beta= 0.30
     Davidson diagonalization with overlap
     ethr =  1.24E-09,  avg # of iterations =  5.0

     negative rho (up, down):  1.324E-02 0.000E+00

     total cpu time spent up to now is     1693.9 secs

     total energy              =    -525.35819159 Ry
     estimated scf accuracy    <       0.00000104 Ry

     iteration #  6     ecut=    60.00 Ry     beta= 0.30
     Davidson diagonalization with overlap
     ethr =  1.24E-09,  avg # of iterations =  6.0

     negative rho (up, down):  1.324E-02 0.000E+00

     total cpu time spent up to now is     1711.1 secs

     total energy              =    -525.35819149 Ry
     estimated scf accuracy    <       0.00000417 Ry

     iteration #  7     ecut=    60.00 Ry     beta= 0.30
     Davidson diagonalization with overlap
     ethr =  1.24E-09,  avg # of iterations =  6.0

     negative rho (up, down):  1.324E-02 0.000E+00

     total cpu time spent up to now is     1725.2 secs

     total energy              =    -525.35819193 Ry
     estimated scf accuracy    <       0.00000006 Ry

     iteration #  8     ecut=    60.00 Ry     beta= 0.30
     Davidson diagonalization with overlap
     ethr =  9.84E-11,  avg # of iterations =  5.0

     negative rho (up, down):  1.324E-02 0.000E+00

     total cpu time spent up to now is     1739.9 secs

     total energy              =    -525.35819190 Ry
     estimated scf accuracy    <       0.00000009 Ry

     iteration #  9     ecut=    60.00 Ry     beta= 0.30
     Davidson diagonalization with overlap
     ethr =  9.84E-11,  avg # of iterations =  5.0

     negative rho (up, down):  1.324E-02 0.000E+00

     total cpu time spent up to now is     1757.6 secs

     total energy              =    -525.35819193 Ry
     estimated scf accuracy    <       0.00000012 Ry

     iteration # 10     ecut=    60.00 Ry     beta= 0.30
     Davidson diagonalization with overlap
     ethr =  9.84E-11,  avg # of iterations =  1.0

     negative rho (up, down):  1.324E-02 0.000E+00

     total cpu time spent up to now is     1770.7 secs

     total energy              =    -525.35819191 Ry
     estimated scf accuracy    <       0.00000009 Ry

     iteration # 11     ecut=    60.00 Ry     beta= 0.30
     Davidson diagonalization with overlap
     ethr =  9.84E-11,  avg # of iterations =  5.0

     negative rho (up, down):  1.324E-02 0.000E+00

     total cpu time spent up to now is     1787.7 secs

     total energy              =    -525.35819193 Ry
     estimated scf accuracy    <       0.00000002 Ry

     iteration # 12     ecut=    60.00 Ry     beta= 0.30
     Davidson diagonalization with overlap
     ethr =  3.10E-11,  avg # of iterations =  1.0

     negative rho (up, down):  1.324E-02 0.000E+00

     total cpu time spent up to now is     1800.5 secs

     total energy              =    -525.35819193 Ry
     estimated scf accuracy    <       0.00000001 Ry

     iteration # 13     ecut=    60.00 Ry     beta= 0.30
     Davidson diagonalization with overlap
     ethr =  2.25E-11,  avg # of iterations =  6.0

     negative rho (up, down):  1.324E-02 0.000E+00

     total cpu time spent up to now is     1817.6 secs

     total energy              =    -525.35819193 Ry
     estimated scf accuracy    <       0.00000002 Ry

     iteration # 14     ecut=    60.00 Ry     beta= 0.30
     Davidson diagonalization with overlap
     ethr =  2.25E-11,  avg # of iterations =  1.0

     negative rho (up, down):  1.324E-02 0.000E+00

     total cpu time spent up to now is     1830.8 secs

     total energy              =    -525.35819193 Ry
     estimated scf accuracy    <          9.5E-09 Ry

     iteration # 15     ecut=    60.00 Ry     beta= 0.30
     Davidson diagonalization with overlap
     ethr =  1.45E-11,  avg # of iterations =  2.0

     negative rho (up, down):  1.324E-02 0.000E+00

     total cpu time spent up to now is     1844.2 secs

     total energy              =    -525.35819193 Ry
     estimated scf accuracy    <          5.4E-09 Ry

     iteration # 16     ecut=    60.00 Ry     beta= 0.30
     Davidson diagonalization with overlap
     ethr =  8.18E-12,  avg # of iterations =  5.0

     negative rho (up, down):  1.324E-02 0.000E+00

     total cpu time spent up to now is     1860.7 secs

     End of self-consistent calculation

          k = 0.0000 0.0000 0.0000 (120209 PWs)   bands (ev):

   -90.0829 -56.9018 -55.8526 -55.8525 -22.1218 -21.6832 -17.4907 -17.4902
   -17.4678 -17.4673 -13.3207 -13.3206 -13.1263 -13.1263 -13.1075 -12.7892
   -10.1358  -9.9162  -9.9156  -9.6013  -9.6006  -9.0999  -9.0996  -9.0725
    -9.0722  -8.7895  -6.6275  -6.6271  -6.1600  -6.1596  -4.4242  -4.2245
    -4.2245

     highest occupied level (ev):    -4.2245

!    total energy              =    -525.35819193 Ry
     estimated scf accuracy    <          4.6E-10 Ry

     The total energy is the sum of the following terms:
     one-electron contribution =   -2325.97811492 Ry
     hartree contribution      =    1167.16151518 Ry
     xc contribution           =     -88.20954642 Ry
     ewald contribution        =     859.48078727 Ry
     one-center paw contrib.   =    -137.81283304 Ry

     convergence has been achieved in  16 iterations

     negative rho (up, down):  1.324E-02 0.000E+00

     Forces acting on atoms (cartesian axes, Ry/au):

     atom    1 type  2   force =     0.00000000    0.00000000    0.00000000
     atom    2 type  1   force =    -0.00006230    0.00000000   -0.00104214
     atom    3 type  1   force =    -0.00001237   -0.00003265   -0.00103900
     atom    4 type  1   force =     0.00008059   -0.00006886   -0.00103967
     atom    5 type  1   force =     0.00008059    0.00006886   -0.00103967
     atom    6 type  1   force =    -0.00001237    0.00003265   -0.00103900
     atom    7 type  3   force =    -0.00020455    0.00000000   -0.00145707
     atom    8 type  3   force =    -0.00006789   -0.00022660   -0.00145662
     atom    9 type  3   force =     0.00017567   -0.00012128   -0.00145586
     atom   10 type  3   force =     0.00017567    0.00012128   -0.00145586
     atom   11 type  3   force =    -0.00006789    0.00022660   -0.00145662
     atom   12 type  1   force =    -0.00008059   -0.00006886    0.00103967
     atom   13 type  1   force =     0.00001237   -0.00003265    0.00103900
     atom   14 type  1   force =     0.00006230    0.00000000    0.00104214
     atom   15 type  1   force =     0.00001237    0.00003265    0.00103900
     atom   16 type  1   force =    -0.00008059    0.00006886    0.00103967
     atom   17 type  3   force =    -0.00017567   -0.00012128    0.00145586
     atom   18 type  3   force =     0.00006789   -0.00022660    0.00145662
     atom   19 type  3   force =     0.00020455    0.00000000    0.00145707
     atom   20 type  3   force =     0.00006789    0.00022660    0.00145662
     atom   21 type  3   force =    -0.00017567    0.00012128    0.00145586

     Total force =     0.005707     Total SCF correction =     0.000033
     Energy error            =      5.6E-05 Ry
     Gradient error          =      1.5E-03 Ry/Bohr

     number of scf cycles    =   6
     number of bfgs steps    =   4

     energy             old  =    -525.3581360371 Ry
     energy             new  =    -525.3581919321 Ry

     CASE: energy            _new < energy            _old

     new trust radius        =       0.0045753207 bohr
     new conv_thr            =       0.0000000006 Ry


ATOMIC_POSITIONS (angstrom)
Fe               8.2809111300        8.2809111300        8.2809111300
C                9.5000207512        8.2809111300        9.9380457854
C                8.6576722381        9.4402686125        9.9380475608
C                7.2946969302        8.9974161850        9.9380481354
C                7.2946969302        7.5644060750        9.9380481354
C                8.6576722381        7.1215536475        9.9380475608
H               10.5873275469        8.2809111300        9.9351265038
H                8.9936194815       10.4743732767        9.9351283412
H                6.4150355685        9.6365584691        9.9351290424
H                6.4150355685        6.9252638009        9.9351290424
H                8.9936194815        6.0874489933        9.9351283412
C                9.2671253398        8.9974161850        6.6237741246
C                7.9041500219        9.4402686125        6.6237746992
C                7.0618015088        8.2809111300        6.6237764746
C                7.9041500219        7.1215536475        6.6237746992
C                9.2671253398        7.5644060750        6.6237741246
H               10.1467866915        9.6365584691        6.6266932176
H                7.5682027785       10.4743732767        6.6266939188
H                5.9744947131        8.2809111300        6.6266957562
H                7.5682027785        6.0874489933        6.6266939188
H               10.1467866915        6.9252638009        6.6266932176



     Writing config-only to output data dir /home/duets/qe_workdirs/ferrocene__ring2_rotation_deg__+36/ferrocene__ring2_rotation_deg__+36.save/ :
     XML data file
     NEW-OLD atomic charge density approx. for the potential

     Check: negative core charge=   -0.000002

     negative rho (up, down):  1.324E-02 0.000E+00

     total cpu time spent up to now is     1876.4 secs

     Self-consistent Calculation

     iteration #  1     ecut=    60.00 Ry     beta= 0.30
     Davidson diagonalization with overlap
     ethr =  1.00E-06,  avg # of iterations =  5.0

     Threshold (ethr) on eigenvalues was too large:
     Diagonalizing with lowered threshold

     Davidson diagonalization with overlap
     ethr =  2.11E-08,  avg # of iterations =  6.0

     negative rho (up, down):  1.324E-02 0.000E+00

     total cpu time spent up to now is     1904.4 secs

     total energy              =    -525.35825601 Ry
     estimated scf accuracy    <       0.00003208 Ry

     iteration #  2     ecut=    60.00 Ry     beta= 0.30
     Davidson diagonalization with overlap
     ethr =  4.86E-08,  avg # of iterations =  5.0

     negative rho (up, down):  1.324E-02 0.000E+00

     total cpu time spent up to now is     1921.0 secs

     total energy              =    -525.35825444 Ry
     estimated scf accuracy    <       0.00002663 Ry

     iteration #  3     ecut=    60.00 Ry     beta= 0.30
     Davidson diagonalization with overlap
     ethr =  4.04E-08,  avg # of iterations =  5.0

     negative rho (up, down):  1.324E-02 0.000E+00

     total cpu time spent up to now is     1935.1 secs

     total energy              =    -525.35825587 Ry
     estimated scf accuracy    <       0.00001386 Ry

     iteration #  4     ecut=    60.00 Ry     beta= 0.30
     Davidson diagonalization with overlap
     ethr =  2.10E-08,  avg # of iterations =  3.0

     negative rho (up, down):  1.324E-02 0.000E+00

     total cpu time spent up to now is     1948.8 secs

     total energy              =    -525.35825789 Ry
     estimated scf accuracy    <       0.00000109 Ry

     iteration #  5     ecut=    60.00 Ry     beta= 0.30
     Davidson diagonalization with overlap
     ethr =  1.65E-09,  avg # of iterations =  5.0

     negative rho (up, down):  1.324E-02 0.000E+00

     total cpu time spent up to now is     1966.1 secs

     total energy              =    -525.35825811 Ry
     estimated scf accuracy    <       0.00000222 Ry

     iteration #  6     ecut=    60.00 Ry     beta= 0.30
     Davidson diagonalization with overlap
     ethr =  1.65E-09,  avg # of iterations =  5.0

     negative rho (up, down):  1.324E-02 0.000E+00

     total cpu time spent up to now is     1980.6 secs

     total energy              =    -525.35825833 Ry
     estimated scf accuracy    <       0.00000060 Ry

     iteration #  7     ecut=    60.00 Ry     beta= 0.30
     Davidson diagonalization with overlap
     ethr =  9.14E-10,  avg # of iterations =  5.0

     negative rho (up, down):  1.324E-02 0.000E+00

     total cpu time spent up to now is     1997.6 secs

     total energy              =    -525.35825850 Ry
     estimated scf accuracy    <       0.00000031 Ry

     iteration #  8     ecut=    60.00 Ry     beta= 0.30
     Davidson diagonalization with overlap
     ethr =  4.75E-10,  avg # of iterations =  2.0

     negative rho (up, down):  1.324E-02 0.000E+00

     total cpu time spent up to now is     2011.1 secs

     total energy              =    -525.35825848 Ry
     estimated scf accuracy    <       0.00000014 Ry

     iteration #  9     ecut=    60.00 Ry     beta= 0.30
     Davidson diagonalization with overlap
     ethr =  2.06E-10,  avg # of iterations =  5.0

     negative rho (up, down):  1.324E-02 0.000E+00

     total cpu time spent up to now is     2028.3 secs

     total energy              =    -525.35825853 Ry
     estimated scf accuracy    <       0.00000008 Ry

     iteration # 10     ecut=    60.00 Ry     beta= 0.30
     Davidson diagonalization with overlap
     ethr =  1.24E-10,  avg # of iterations =  1.0

     negative rho (up, down):  1.324E-02 0.000E+00

     total cpu time spent up to now is     2041.4 secs

     total energy              =    -525.35825854 Ry
     estimated scf accuracy    <       0.00000007 Ry

     iteration # 11     ecut=    60.00 Ry     beta= 0.30
     Davidson diagonalization with overlap
     ethr =  1.09E-10,  avg # of iterations =  5.0

     negative rho (up, down):  1.324E-02 0.000E+00

     total cpu time spent up to now is     2055.3 secs

     total energy              =    -525.35825852 Ry
     estimated scf accuracy    <       0.00000011 Ry

     iteration # 12     ecut=    60.00 Ry     beta= 0.30
     Davidson diagonalization with overlap
     ethr =  1.09E-10,  avg # of iterations =  5.0

     negative rho (up, down):  1.324E-02 0.000E+00

     total cpu time spent up to now is     2071.9 secs

     total energy              =    -525.35825853 Ry
     estimated scf accuracy    <          9.4E-10 Ry

     iteration # 13     ecut=    60.00 Ry     beta= 0.30
     Davidson diagonalization with overlap
     ethr =  1.43E-12,  avg # of iterations = 11.0

     negative rho (up, down):  1.324E-02 0.000E+00

     total cpu time spent up to now is     2090.3 secs

     total energy              =    -525.35825853 Ry
     estimated scf accuracy    <          7.1E-09 Ry

     iteration # 14     ecut=    60.00 Ry     beta= 0.30
     Davidson diagonalization with overlap
     ethr =  1.43E-12,  avg # of iterations =  5.0

     negative rho (up, down):  1.324E-02 0.000E+00

     total cpu time spent up to now is     2107.7 secs

     total energy              =    -525.35825853 Ry
     estimated scf accuracy    <       0.00000002 Ry

     iteration # 15     ecut=    60.00 Ry     beta= 0.30
     Davidson diagonalization with overlap
     ethr =  1.43E-12,  avg # of iterations =  5.0

     negative rho (up, down):  1.324E-02 0.000E+00

     total cpu time spent up to now is     2122.2 secs

     total energy              =    -525.35825853 Ry
     estimated scf accuracy    <          7.2E-09 Ry

     iteration # 16     ecut=    60.00 Ry     beta= 0.30
     Davidson diagonalization with overlap
     ethr =  1.43E-12,  avg # of iterations =  6.0

     negative rho (up, down):  1.324E-02 0.000E+00

     total cpu time spent up to now is     2139.9 secs

     End of self-consistent calculation

          k = 0.0000 0.0000 0.0000 (120209 PWs)   bands (ev):

   -90.0858 -56.9035 -55.8565 -55.8564 -22.1169 -21.6761 -17.4885 -17.4879
   -17.4657 -17.4651 -13.3192 -13.3190 -13.1233 -13.1231 -13.1034 -12.7831
   -10.1327  -9.9168  -9.9162  -9.6005  -9.5999  -9.0988  -9.0988  -9.0713
    -9.0713  -8.7825  -6.6277  -6.6272  -6.1615  -6.1610  -4.4260  -4.2302
    -4.2302

     highest occupied level (ev):    -4.2302

!    total energy              =    -525.35825853 Ry
     estimated scf accuracy    <          5.4E-10 Ry

     The total energy is the sum of the following terms:
     one-electron contribution =   -2326.23151474 Ry
     hartree contribution      =    1167.28519949 Ry
     xc contribution           =     -88.20105451 Ry
     ewald contribution        =     859.60165414 Ry
     one-center paw contrib.   =    -137.81254291 Ry

     convergence has been achieved in  16 iterations

     negative rho (up, down):  1.324E-02 0.000E+00

     Forces acting on atoms (cartesian axes, Ry/au):

     atom    1 type  2   force =     0.00000000    0.00000000    0.00000000
     atom    2 type  1   force =    -0.00009096    0.00000000   -0.00084701
     atom    3 type  1   force =    -0.00002555   -0.00011237   -0.00084701
     atom    4 type  1   force =     0.00006861    0.00000569   -0.00084036
     atom    5 type  1   force =     0.00006861   -0.00000569   -0.00084036
     atom    6 type  1   force =    -0.00002555    0.00011237   -0.00084701
     atom    7 type  3   force =    -0.00116416    0.00000000   -0.00142438
     atom    8 type  3   force =    -0.00035489   -0.00110729   -0.00142275
     atom    9 type  3   force =     0.00097824   -0.00070840   -0.00142151
     atom   10 type  3   force =     0.00097824    0.00070840   -0.00142151
     atom   11 type  3   force =    -0.00035489    0.00110729   -0.00142275
     atom   12 type  1   force =    -0.00006861    0.00000569    0.00084036
     atom   13 type  1   force =     0.00002555   -0.00011237    0.00084701
     atom   14 type  1   force =     0.00009096    0.00000000    0.00084701
     atom   15 type  1   force =     0.00002555    0.00011237    0.00084701
     atom   16 type  1   force =    -0.00006861   -0.00000569    0.00084036
     atom   17 type  3   force =    -0.00097824   -0.00070840    0.00142151
     atom   18 type  3   force =     0.00035489   -0.00110729    0.00142275
     atom   19 type  3   force =     0.00116416    0.00000000    0.00142438
     atom   20 type  3   force =     0.00035489    0.00110729    0.00142275
     atom   21 type  3   force =    -0.00097824    0.00070840    0.00142151

     Total force =     0.006435     Total SCF correction =     0.000049
     Energy error            =      6.7E-05 Ry
     Gradient error          =      1.4E-03 Ry/Bohr

     number of scf cycles    =   7
     number of bfgs steps    =   5

     energy             old  =    -525.3581919321 Ry
     energy             new  =    -525.3582585319 Ry

     CASE: energy            _new < energy            _old

     new trust radius        =       0.0050328528 bohr
     new conv_thr            =       0.0000000007 Ry


ATOMIC_POSITIONS (angstrom)
Fe               8.2809111300        8.2809111300        8.2809111300
C                9.5003296351        8.2809111300        9.9362940176
C                8.6577788180        9.4405237929        9.9362985455
C                7.2944657296        8.9976124193        9.9363033059
C                7.2944657296        7.5642098407        9.9363033059
C                8.6577788180        7.1212984671        9.9362985455
H               10.5880000843        8.2809111300        9.9325495471
H                8.9938321531       10.4750040739        9.9325528683
H                6.4145288687        9.6369327821        9.9325550108
H                6.4145288687        6.9248894879        9.9325550108
H                8.9938321531        6.0868181961        9.9325528683
C                9.2673565404        8.9976124193        6.6255189541
C                7.9040434420        9.4405237929        6.6255237145
C                7.0614926249        8.2809111300        6.6255282424
C                7.9040434420        7.1212984671        6.6255237145
C                9.2673565404        7.5642098407        6.6255189541
H               10.1472933913        9.6369327821        6.6292672492
H                7.5679901069       10.4750040739        6.6292693917
H                5.9738221757        8.2809111300        6.6292727129
H                7.5679901069        6.0868181961        6.6292693917
H               10.1472933913        6.9248894879        6.6292672492



     Writing config-only to output data dir /home/duets/qe_workdirs/ferrocene__ring2_rotation_deg__+36/ferrocene__ring2_rotation_deg__+36.save/ :
     XML data file
     NEW-OLD atomic charge density approx. for the potential

     Check: negative core charge=   -0.000002

     negative rho (up, down):  1.323E-02 0.000E+00

     total cpu time spent up to now is     2155.2 secs

     Self-consistent Calculation

     iteration #  1     ecut=    60.00 Ry     beta= 0.30
     Davidson diagonalization with overlap
     ethr =  1.00E-06,  avg # of iterations =  4.0

     Threshold (ethr) on eigenvalues was too large:
     Diagonalizing with lowered threshold

     Davidson diagonalization with overlap
     ethr =  2.07E-08,  avg # of iterations =  8.0

     negative rho (up, down):  1.323E-02 0.000E+00

     total cpu time spent up to now is     2184.7 secs

     total energy              =    -525.35832883 Ry
     estimated scf accuracy    <       0.00003593 Ry

     iteration #  2     ecut=    60.00 Ry     beta= 0.30
     Davidson diagonalization with overlap
     ethr =  5.44E-08,  avg # of iterations =  5.0

     negative rho (up, down):  1.323E-02 0.000E+00

     total cpu time spent up to now is     2201.4 secs

     total energy              =    -525.35832716 Ry
     estimated scf accuracy    <       0.00004125 Ry

     iteration #  3     ecut=    60.00 Ry     beta= 0.30
     Davidson diagonalization with overlap
     ethr =  5.44E-08,  avg # of iterations =  5.0

     negative rho (up, down):  1.323E-02 0.000E+00

     total cpu time spent up to now is     2215.3 secs

     total energy              =    -525.35833035 Ry
     estimated scf accuracy    <       0.00001236 Ry

     iteration #  4     ecut=    60.00 Ry     beta= 0.30
     Davidson diagonalization with overlap
     ethr =  1.87E-08,  avg # of iterations =  2.0

     negative rho (up, down):  1.323E-02 0.000E+00

     total cpu time spent up to now is     2228.8 secs

     total energy              =    -525.35833152 Ry
     estimated scf accuracy    <       0.00000186 Ry

     iteration #  5     ecut=    60.00 Ry     beta= 0.30
     Davidson diagonalization with overlap
     ethr =  2.82E-09,  avg # of iterations =  6.0

     negative rho (up, down):  1.323E-02 0.000E+00

     total cpu time spent up to now is     2246.0 secs

     total energy              =    -525.35833146 Ry
     estimated scf accuracy    <       0.00000550 Ry

     iteration #  6     ecut=    60.00 Ry     beta= 0.30
     Davidson diagonalization with overlap
     ethr =  2.82E-09,  avg # of iterations =  5.0

     negative rho (up, down):  1.323E-02 0.000E+00

     total cpu time spent up to now is     2260.1 secs

     total energy              =    -525.35833216 Ry
     estimated scf accuracy    <       0.00000079 Ry

     iteration #  7     ecut=    60.00 Ry     beta= 0.30
     Davidson diagonalization with overlap
     ethr =  1.19E-09,  avg # of iterations =  4.0

     negative rho (up, down):  1.323E-02 0.000E+00

     total cpu time spent up to now is     2276.9 secs

     total energy              =    -525.35833225 Ry
     estimated scf accuracy    <       0.00000002 Ry

     iteration #  8     ecut=    60.00 Ry     beta= 0.30
     Davidson diagonalization with overlap
     ethr =  3.02E-11,  avg # of iterations =  9.0

     negative rho (up, down):  1.323E-02 0.000E+00

     total cpu time spent up to now is     2294.5 secs

     total energy              =    -525.35833232 Ry
     estimated scf accuracy    <       0.00000002 Ry

     iteration #  9     ecut=    60.00 Ry     beta= 0.30
     Davidson diagonalization with overlap
     ethr =  3.02E-11,  avg # of iterations =  2.0

     negative rho (up, down):  1.323E-02 0.000E+00

     total cpu time spent up to now is     2310.8 secs

     total energy              =    -525.35833232 Ry
     estimated scf accuracy    <          9.6E-09 Ry

     iteration # 10     ecut=    60.00 Ry     beta= 0.30
     Davidson diagonalization with overlap
     ethr =  1.45E-11,  avg # of iterations =  4.0

     negative rho (up, down):  1.323E-02 0.000E+00

     total cpu time spent up to now is     2324.8 secs

     total energy              =    -525.35833232 Ry
     estimated scf accuracy    <          9.6E-10 Ry

     iteration # 11     ecut=    60.00 Ry     beta= 0.30
     Davidson diagonalization with overlap
     ethr =  1.46E-12,  avg # of iterations =  5.0

     negative rho (up, down):  1.323E-02 0.000E+00

     total cpu time spent up to now is     2342.8 secs

     End of self-consistent calculation

          k = 0.0000 0.0000 0.0000 (120209 PWs)   bands (ev):

   -90.0885 -56.9052 -55.8602 -55.8600 -22.1154 -21.6718 -17.4881 -17.4875
   -17.4653 -17.4647 -13.3192 -13.3192 -13.1216 -13.1215 -13.1023 -12.7797
   -10.1312  -9.9188  -9.9180  -9.6008  -9.5999  -9.0989  -9.0985  -9.0712
    -9.0707  -8.7767  -6.6287  -6.6283  -6.1634  -6.1629  -4.4278  -4.2360
    -4.2359

     highest occupied level (ev):    -4.2359

!    total energy              =    -525.35833232 Ry
     estimated scf accuracy    <          3.4E-10 Ry

     The total energy is the sum of the following terms:
     one-electron contribution =   -2326.78918771 Ry
     hartree contribution      =    1167.56125994 Ry
     xc contribution           =     -88.19804876 Ry
     ewald contribution        =     859.88007226 Ry
     one-center paw contrib.   =    -137.81242805 Ry

     convergence has been achieved in  11 iterations

     negative rho (up, down):  1.323E-02 0.000E+00

     Forces acting on atoms (cartesian axes, Ry/au):

     atom    1 type  2   force =     0.00000000    0.00000000    0.00000000
     atom    2 type  1   force =    -0.00009226    0.00000000   -0.00060282
     atom    3 type  1   force =    -0.00003237   -0.00004361   -0.00060016
     atom    4 type  1   force =     0.00011719   -0.00010059   -0.00059717
     atom    5 type  1   force =     0.00011719    0.00010059   -0.00059717
     atom    6 type  1   force =    -0.00003237    0.00004361   -0.00060016
     atom    7 type  3   force =    -0.00165051    0.00000000   -0.00137196
     atom    8 type  3   force =    -0.00051076   -0.00160106   -0.00137061
     atom    9 type  3   force =     0.00133693   -0.00096205   -0.00136864
     atom   10 type  3   force =     0.00133693    0.00096205   -0.00136864
     atom   11 type  3   force =    -0.00051076    0.00160106   -0.00137061
     atom   12 type  1   force =    -0.00011719   -0.00010059    0.00059717
     atom   13 type  1   force =     0.00003237   -0.00004361    0.00060016
     atom   14 type  1   force =     0.00009226    0.00000000    0.00060282
     atom   15 type  1   force =     0.00003237    0.00004361    0.00060016
     atom   16 type  1   force =    -0.00011719    0.00010059    0.00059717
     atom   17 type  3   force =    -0.00133693   -0.00096205    0.00136864
     atom   18 type  3   force =     0.00051076   -0.00160106    0.00137061
     atom   19 type  3   force =     0.00165051    0.00000000    0.00137196
     atom   20 type  3   force =     0.00051076    0.00160106    0.00137061
     atom   21 type  3   force =    -0.00133693    0.00096205    0.00136864

     Total force =     0.007077     Total SCF correction =     0.000050
     Energy error            =      7.4E-05 Ry
     Gradient error          =      1.7E-03 Ry/Bohr

     number of scf cycles    =   8
     number of bfgs steps    =   6

     energy             old  =    -525.3582585319 Ry
     energy             new  =    -525.3583323188 Ry

     CASE: energy            _new < energy            _old

     new trust radius        =       0.0075492792 bohr
     new conv_thr            =       0.0000000007 Ry


ATOMIC_POSITIONS (angstrom)
Fe               8.2809111300        8.2809111300        8.2809111300
C                9.5006003383        8.2809111300        9.9337385985
C                8.6578750409        9.4407740386        9.9337496293
C                7.2943128722        8.9977102955        9.9337579314
C                7.2943128722        7.5641119645        9.9337579314
C                8.6578750409        7.1210482214        9.9337496293
H               10.5884485760        8.2809111300        9.9285798956
H                8.9939745400       10.4753943319        9.9285852616
H                6.4141964938        9.6371893562        9.9285902289
H                6.4141964938        6.9246329138        9.9285902289
H                8.9939745400        6.0864279381        9.9285852616
C                9.2675093978        8.9977102955        6.6280643286
C                7.9039472191        9.4407740386        6.6280726307
C                7.0612219217        8.2809111300        6.6280836615
C                7.9039472191        7.1210482214        6.6280726307
C                9.2675093978        7.5641119645        6.6280643286
H               10.1476257662        9.6371893562        6.6332320311
H                7.5678477200       10.4753943319        6.6332369984
H                5.9733736840        8.2809111300        6.6332423644
H                7.5678477200        6.0864279381        6.6332369984
H               10.1476257662        6.9246329138        6.6332320311



     Writing config-only to output data dir /home/duets/qe_workdirs/ferrocene__ring2_rotation_deg__+36/ferrocene__ring2_rotation_deg__+36.save/ :
     XML data file
     NEW-OLD atomic charge density approx. for the potential

     Check: negative core charge=   -0.000002

     negative rho (up, down):  1.323E-02 0.000E+00

     total cpu time spent up to now is     2358.7 secs

     Self-consistent Calculation

     iteration #  1     ecut=    60.00 Ry     beta= 0.30
     Davidson diagonalization with overlap
     ethr =  1.00E-06,  avg # of iterations =  5.0

     Threshold (ethr) on eigenvalues was too large:
     Diagonalizing with lowered threshold

     Davidson diagonalization with overlap
     ethr =  5.39E-08,  avg # of iterations =  7.0

     negative rho (up, down):  1.323E-02 0.000E+00

     total cpu time spent up to now is     2388.6 secs

     total energy              =    -525.35843436 Ry
     estimated scf accuracy    <       0.00006243 Ry

     iteration #  2     ecut=    60.00 Ry     beta= 0.30
     Davidson diagonalization with overlap
     ethr =  9.46E-08,  avg # of iterations =  2.0

     negative rho (up, down):  1.323E-02 0.000E+00

     total cpu time spent up to now is     2401.7 secs

     total energy              =    -525.35843019 Ry
     estimated scf accuracy    <       0.00002322 Ry

     iteration #  3     ecut=    60.00 Ry     beta= 0.30
     Davidson diagonalization with overlap
     ethr =  3.52E-08,  avg # of iterations =  4.0

     negative rho (up, down):  1.323E-02 0.000E+00

     total cpu time spent up to now is     2418.8 secs

     total energy              =    -525.35843591 Ry
     estimated scf accuracy    <       0.00000297 Ry

     iteration #  4     ecut=    60.00 Ry     beta= 0.30
     Davidson diagonalization with overlap
     ethr =  4.50E-09,  avg # of iterations =  5.0

     negative rho (up, down):  1.322E-02 0.000E+00

     total cpu time spent up to now is     2432.9 secs

     total energy              =    -525.35843641 Ry
     estimated scf accuracy    <       0.00000159 Ry

     iteration #  5     ecut=    60.00 Ry     beta= 0.30
     Davidson diagonalization with overlap
     ethr =  2.41E-09,  avg # of iterations =  5.0

     negative rho (up, down):  1.322E-02 0.000E+00

     total cpu time spent up to now is     2450.3 secs

     total energy              =    -525.35843676 Ry
     estimated scf accuracy    <       0.00000049 Ry

     iteration #  6     ecut=    60.00 Ry     beta= 0.30
     Davidson diagonalization with overlap
     ethr =  7.47E-10,  avg # of iterations =  6.0

     negative rho (up, down):  1.322E-02 0.000E+00

     total cpu time spent up to now is     2465.2 secs

     total energy              =    -525.35843737 Ry
     estimated scf accuracy    <       0.00000252 Ry

     iteration #  7     ecut=    60.00 Ry     beta= 0.30
     Davidson diagonalization with overlap
     ethr =  7.47E-10,  avg # of iterations =  2.0

     negative rho (up, down):  1.322E-02 0.000E+00

     total cpu time spent up to now is     2478.3 secs

     total energy              =    -525.35843721 Ry
     estimated scf accuracy    <       0.00000349 Ry

     iteration #  8     ecut=    60.00 Ry     beta= 0.30
     Davidson diagonalization with overlap
     ethr =  7.47E-10,  avg # of iterations =  2.0

     negative rho (up, down):  1.322E-02 0.000E+00

     total cpu time spent up to now is     2494.5 secs

     total energy              =    -525.35843622 Ry
     estimated scf accuracy    <       0.00000272 Ry

     iteration #  9     ecut=    60.00 Ry     beta= 0.30
     Davidson diagonalization with overlap
     ethr =  7.47E-10,  avg # of iterations =  8.0

     negative rho (up, down):  1.322E-02 0.000E+00

     total cpu time spent up to now is     2509.9 secs

     total energy              =    -525.35843709 Ry
     estimated scf accuracy    <       0.00000421 Ry

     iteration # 10     ecut=    60.00 Ry     beta= 0.30
     Davidson diagonalization with overlap
     ethr =  7.47E-10,  avg # of iterations =  2.0

     negative rho (up, down):  1.322E-02 0.000E+00

     total cpu time spent up to now is     2526.1 secs

     total energy              =    -525.35843712 Ry
     estimated scf accuracy    <       0.00000301 Ry

     iteration # 11     ecut=    60.00 Ry     beta= 0.30
     Davidson diagonalization with overlap
     ethr =  7.47E-10,  avg # of iterations =  1.0

     negative rho (up, down):  1.322E-02 0.000E+00

     total cpu time spent up to now is     2539.0 secs

     total energy              =    -525.35843685 Ry
     estimated scf accuracy    <       0.00000288 Ry

     iteration # 12     ecut=    60.00 Ry     beta= 0.30
     Davidson diagonalization with overlap
     ethr =  7.47E-10,  avg # of iterations =  5.0

     negative rho (up, down):  1.322E-02 0.000E+00

     total cpu time spent up to now is     2555.7 secs

     total energy              =    -525.35843694 Ry
     estimated scf accuracy    <       0.00000045 Ry

     iteration # 13     ecut=    60.00 Ry     beta= 0.30
     Davidson diagonalization with overlap
     ethr =  6.88E-10,  avg # of iterations =  1.0

     negative rho (up, down):  1.322E-02 0.000E+00

     total cpu time spent up to now is     2568.9 secs

     total energy              =    -525.35843685 Ry
     estimated scf accuracy    <       0.00000035 Ry

     iteration # 14     ecut=    60.00 Ry     beta= 0.30
     Davidson diagonalization with overlap
     ethr =  5.26E-10,  avg # of iterations =  5.0

     negative rho (up, down):  1.322E-02 0.000E+00

     total cpu time spent up to now is     2583.3 secs

     total energy              =    -525.35843694 Ry
     estimated scf accuracy    <       0.00000038 Ry

     iteration # 15     ecut=    60.00 Ry     beta= 0.30
     Davidson diagonalization with overlap
     ethr =  5.26E-10,  avg # of iterations =  1.0

     negative rho (up, down):  1.322E-02 0.000E+00

     total cpu time spent up to now is     2599.2 secs

     total energy              =    -525.35843698 Ry
     estimated scf accuracy    <       0.00000026 Ry

     iteration # 16     ecut=    60.00 Ry     beta= 0.30
     Davidson diagonalization with overlap
     ethr =  3.96E-10,  avg # of iterations =  1.0

     negative rho (up, down):  1.322E-02 0.000E+00

     total cpu time spent up to now is     2612.0 secs

     total energy              =    -525.35843694 Ry
     estimated scf accuracy    <       0.00000035 Ry

     iteration # 17     ecut=    60.00 Ry     beta= 0.30
     Davidson diagonalization with overlap
     ethr =  3.96E-10,  avg # of iterations =  1.0

     negative rho (up, down):  1.322E-02 0.000E+00

     total cpu time spent up to now is     2628.4 secs

     total energy              =    -525.35843693 Ry
     estimated scf accuracy    <       0.00000025 Ry

     iteration # 18     ecut=    60.00 Ry     beta= 0.30
     Davidson diagonalization with overlap
     ethr =  3.79E-10,  avg # of iterations =  2.0

     negative rho (up, down):  1.322E-02 0.000E+00

     total cpu time spent up to now is     2641.8 secs

     total energy              =    -525.35843686 Ry
     estimated scf accuracy    <       0.00000015 Ry

     iteration # 19     ecut=    60.00 Ry     beta= 0.30
     Davidson diagonalization with overlap
     ethr =  2.25E-10,  avg # of iterations =  7.0

     negative rho (up, down):  1.322E-02 0.000E+00

     total cpu time spent up to now is     2659.4 secs

     total energy              =    -525.35843700 Ry
     estimated scf accuracy    <       0.00000137 Ry

     iteration # 20     ecut=    60.00 Ry     beta= 0.30
     Davidson diagonalization with overlap
     ethr =  2.25E-10,  avg # of iterations =  2.0

     negative rho (up, down):  1.322E-02 0.000E+00

     total cpu time spent up to now is     2672.8 secs

     total energy              =    -525.35843683 Ry
     estimated scf accuracy    <       0.00000107 Ry

     iteration # 21     ecut=    60.00 Ry     beta= 0.30
     Davidson diagonalization with overlap
     ethr =  2.25E-10,  avg # of iterations =  6.0

     negative rho (up, down):  1.322E-02 0.000E+00

     total cpu time spent up to now is     2687.9 secs

     total energy              =    -525.35843693 Ry
     estimated scf accuracy    <          9.8E-09 Ry

     iteration # 22     ecut=    60.00 Ry     beta= 0.30
     Davidson diagonalization with overlap
     ethr =  1.48E-11,  avg # of iterations =  5.0

     negative rho (up, down):  1.322E-02 0.000E+00

     total cpu time spent up to now is     2704.6 secs

     total energy              =    -525.35843694 Ry
     estimated scf accuracy    <          8.2E-10 Ry

     iteration # 23     ecut=    60.00 Ry     beta= 0.30
     Davidson diagonalization with overlap
     ethr =  1.24E-12,  avg # of iterations =  8.0

     negative rho (up, down):  1.322E-02 0.000E+00

     total cpu time spent up to now is     2719.9 secs

     total energy              =    -525.35843694 Ry
     estimated scf accuracy    <       0.00000002 Ry

     iteration # 24     ecut=    60.00 Ry     beta= 0.30
     Davidson diagonalization with overlap
     ethr =  1.24E-12,  avg # of iterations =  6.0

     negative rho (up, down):  1.322E-02 0.000E+00

     total cpu time spent up to now is     2737.0 secs

     total energy              =    -525.35843693 Ry
     estimated scf accuracy    <       0.00000004 Ry

     iteration # 25     ecut=    60.00 Ry     beta= 0.30
     Davidson diagonalization with overlap
     ethr =  1.24E-12,  avg # of iterations =  9.0

     negative rho (up, down):  1.322E-02 0.000E+00

     total cpu time spent up to now is     2752.6 secs

     total energy              =    -525.35843694 Ry
     estimated scf accuracy    <          4.7E-09 Ry

     iteration # 26     ecut=    60.00 Ry     beta= 0.30
     Davidson diagonalization with overlap
     ethr =  1.24E-12,  avg # of iterations =  8.0

     negative rho (up, down):  1.322E-02 0.000E+00

     total cpu time spent up to now is     2770.5 secs

     total energy              =    -525.35843693 Ry
     estimated scf accuracy    <       0.00000003 Ry

     iteration # 27     ecut=    60.00 Ry     beta= 0.30
     Davidson diagonalization with overlap
     ethr =  1.24E-12,  avg # of iterations =  6.0

     negative rho (up, down):  1.322E-02 0.000E+00

     total cpu time spent up to now is     2785.0 secs

     End of self-consistent calculation

          k = 0.0000 0.0000 0.0000 (120209 PWs)   bands (ev):

   -90.0920 -56.9077 -55.8651 -55.8649 -22.1165 -21.6689 -17.4894 -17.4887
   -17.4666 -17.4659 -13.3211 -13.3207 -13.1210 -13.1205 -13.1035 -12.7775
   -10.1311  -9.9224  -9.9218  -9.6019  -9.6012  -9.0996  -9.0994  -9.0715
    -9.0712  -8.7704  -6.6312  -6.6306  -6.1666  -6.1660  -4.4301  -4.2440
    -4.2439

     highest occupied level (ev):    -4.2439

!    total energy              =    -525.35843694 Ry
     estimated scf accuracy    <          7.3E-10 Ry

     The total energy is the sum of the following terms:
     one-electron contribution =   -2327.78992211 Ry
     hartree contribution      =    1168.05840322 Ry
     xc contribution           =     -88.19858319 Ry
     ewald contribution        =     860.38409002 Ry
     one-center paw contrib.   =    -137.81242488 Ry

     convergence has been achieved in  27 iterations

     negative rho (up, down):  1.322E-02 0.000E+00

     Forces acting on atoms (cartesian axes, Ry/au):

     atom    1 type  2   force =     0.00000000    0.00000000    0.00000000
     atom    2 type  1   force =    -0.00015165    0.00000000   -0.00024941
     atom    3 type  1   force =    -0.00003243   -0.00016539   -0.00025058
     atom    4 type  1   force =     0.00007170    0.00004779   -0.00023590
     atom    5 type  1   force =     0.00007170   -0.00004779   -0.00023590
     atom    6 type  1   force =    -0.00003243    0.00016539   -0.00025058
     atom    7 type  3   force =    -0.00189073    0.00000000   -0.00127760
     atom    8 type  3   force =    -0.00057698   -0.00179360   -0.00127419
     atom    9 type  3   force =     0.00159056   -0.00115445   -0.00127072
     atom   10 type  3   force =     0.00159056    0.00115445   -0.00127072
     atom   11 type  3   force =    -0.00057698    0.00179360   -0.00127419
     atom   12 type  1   force =    -0.00007170    0.00004779    0.00023590
     atom   13 type  1   force =     0.00003243   -0.00016539    0.00025058
     atom   14 type  1   force =     0.00015165    0.00000000    0.00024941
     atom   15 type  1   force =     0.00003243    0.00016539    0.00025058
     atom   16 type  1   force =    -0.00007170   -0.00004779    0.00023590
     atom   17 type  3   force =    -0.00159056   -0.00115445    0.00127072
     atom   18 type  3   force =     0.00057698   -0.00179360    0.00127419
     atom   19 type  3   force =     0.00189073    0.00000000    0.00127760
     atom   20 type  3   force =     0.00057698    0.00179360    0.00127419
     atom   21 type  3   force =    -0.00159056    0.00115445    0.00127072

     Total force =     0.007335     Total SCF correction =     0.000061
     Energy error            =      1.0E-04 Ry
     Gradient error          =      1.9E-03 Ry/Bohr

     number of scf cycles    =   9
     number of bfgs steps    =   7

     energy             old  =    -525.3583323188 Ry
     energy             new  =    -525.3584369355 Ry

     CASE: energy            _new < energy            _old

     new trust radius        =       0.0113239188 bohr
     new conv_thr            =       0.0000000010 Ry


ATOMIC_POSITIONS (angstrom)
Fe               8.2809111300        8.2809111300        8.2809111300
C                9.5007576571        8.2809111300        9.9301428564
C                8.6579593691        9.4408532637        9.9301604533
C                7.2942018569        8.9978752716        9.9301848925
C                7.2942018569        7.5639469884        9.9301848925
C                8.6579593691        7.1209689963        9.9301604533
H               10.5885986986        8.2809111300        9.9225894166
H                8.9940345194       10.4755152475        9.9225998034
H                6.4141753854        9.6372205514        9.9226105031
H                6.4141753854        6.9246017186        9.9226105031
H                8.9940345194        6.0863070225        9.9225998034
C                9.2676204131        8.9978752716        6.6316373675
C                7.9038628909        9.4408532637        6.6316618067
C                7.0610646029        8.2809111300        6.6316794036
C                7.9038628909        7.1209689963        6.6316618067
C                9.2676204131        7.5639469884        6.6316373675
H               10.1476468746        9.6372205514        6.6392117569
H                7.5677877406       10.4755152475        6.6392224566
H                5.9732235614        8.2809111300        6.6392328434
H                7.5677877406        6.0863070225        6.6392224566
H               10.1476468746        6.9246017186        6.6392117569



     Writing config-only to output data dir /home/duets/qe_workdirs/ferrocene__ring2_rotation_deg__+36/ferrocene__ring2_rotation_deg__+36.save/ :
     XML data file
     NEW-OLD atomic charge density approx. for the potential

     Check: negative core charge=   -0.000002

     negative rho (up, down):  1.323E-02 0.000E+00

     total cpu time spent up to now is     2803.3 secs

     Self-consistent Calculation

     iteration #  1     ecut=    60.00 Ry     beta= 0.30
     Davidson diagonalization with overlap
     ethr =  1.00E-06,  avg # of iterations =  6.0

     negative rho (up, down):  1.322E-02 0.000E+00

     total cpu time spent up to now is     2820.2 secs

     total energy              =    -525.35854108 Ry
     estimated scf accuracy    <       0.00008115 Ry

     iteration #  2     ecut=    60.00 Ry     beta= 0.30
     Davidson diagonalization with overlap
     ethr =  1.23E-07,  avg # of iterations =  5.0

     negative rho (up, down):  1.322E-02 0.000E+00

     total cpu time spent up to now is     2838.2 secs

     total energy              =    -525.35856480 Ry
     estimated scf accuracy    <       0.00007802 Ry

     iteration #  3     ecut=    60.00 Ry     beta= 0.30
     Davidson diagonalization with overlap
     ethr =  1.18E-07,  avg # of iterations =  2.0

     negative rho (up, down):  1.322E-02 0.000E+00

     total cpu time spent up to now is     2851.4 secs

     total energy              =    -525.35855256 Ry
     estimated scf accuracy    <       0.00003987 Ry

     iteration #  4     ecut=    60.00 Ry     beta= 0.30
     Davidson diagonalization with overlap
     ethr =  6.04E-08,  avg # of iterations =  6.0

     negative rho (up, down):  1.322E-02 0.000E+00

     total cpu time spent up to now is     2866.1 secs

     total energy              =    -525.35854426 Ry
     estimated scf accuracy    <       0.00014733 Ry

     iteration #  5     ecut=    60.00 Ry     beta= 0.30
     Davidson diagonalization with overlap
     ethr =  6.04E-08,  avg # of iterations =  6.0

     negative rho (up, down):  1.322E-02 0.000E+00

     total cpu time spent up to now is     2884.2 secs

     total energy              =    -525.35855710 Ry
     estimated scf accuracy    <       0.00005030 Ry

     iteration #  6     ecut=    60.00 Ry     beta= 0.30
     Davidson diagonalization with overlap
     ethr =  6.04E-08,  avg # of iterations =  5.0

     negative rho (up, down):  1.322E-02 0.000E+00

     total cpu time spent up to now is     2898.1 secs

     total energy              =    -525.35855814 Ry
     estimated scf accuracy    <       0.00005647 Ry

     iteration #  7     ecut=    60.00 Ry     beta= 0.30
     Davidson diagonalization with overlap
     ethr =  6.04E-08,  avg # of iterations =  5.0

     negative rho (up, down):  1.321E-02 0.000E+00

     total cpu time spent up to now is     2914.5 secs

     total energy              =    -525.35856698 Ry
     estimated scf accuracy    <       0.00000504 Ry

     iteration #  8     ecut=    60.00 Ry     beta= 0.30
     Davidson diagonalization with overlap
     ethr =  7.63E-09,  avg # of iterations =  4.0

     negative rho (up, down):  1.321E-02 0.000E+00

     total cpu time spent up to now is     2928.3 secs

     total energy              =    -525.35856721 Ry
     estimated scf accuracy    <       0.00000722 Ry

     iteration #  9     ecut=    60.00 Ry     beta= 0.30
     Davidson diagonalization with overlap
     ethr =  7.63E-09,  avg # of iterations =  1.0

     negative rho (up, down):  1.321E-02 0.000E+00

     total cpu time spent up to now is     2944.2 secs

     total energy              =    -525.35856637 Ry
     estimated scf accuracy    <       0.00000565 Ry

     iteration # 10     ecut=    60.00 Ry     beta= 0.30
     Davidson diagonalization with overlap
     ethr =  7.63E-09,  avg # of iterations =  5.0

     negative rho (up, down):  1.321E-02 0.000E+00

     total cpu time spent up to now is     2958.3 secs

     total energy              =    -525.35856706 Ry
     estimated scf accuracy    <       0.00000004 Ry

     iteration # 11     ecut=    60.00 Ry     beta= 0.30
     Davidson diagonalization with overlap
     ethr =  6.62E-11,  avg # of iterations = 11.0

     negative rho (up, down):  1.321E-02 0.000E+00

     total cpu time spent up to now is     2978.1 secs

     total energy              =    -525.35856726 Ry
     estimated scf accuracy    <       0.00000007 Ry

     iteration # 12     ecut=    60.00 Ry     beta= 0.30
     Davidson diagonalization with overlap
     ethr =  6.62E-11,  avg # of iterations =  1.0

     negative rho (up, down):  1.321E-02 0.000E+00

     total cpu time spent up to now is     2991.1 secs

     total energy              =    -525.35856726 Ry
     estimated scf accuracy    <       0.00000005 Ry

     iteration # 13     ecut=    60.00 Ry     beta= 0.30
     Davidson diagonalization with overlap
     ethr =  6.62E-11,  avg # of iterations =  1.0

     negative rho (up, down):  1.321E-02 0.000E+00

     total cpu time spent up to now is     3004.2 secs

     total energy              =    -525.35856726 Ry
     estimated scf accuracy    <       0.00000004 Ry

     iteration # 14     ecut=    60.00 Ry     beta= 0.30
     Davidson diagonalization with overlap
     ethr =  6.32E-11,  avg # of iterations =  1.0

     negative rho (up, down):  1.321E-02 0.000E+00

     total cpu time spent up to now is     3020.3 secs

     total energy              =    -525.35856726 Ry
     estimated scf accuracy    <       0.00000004 Ry

     iteration # 15     ecut=    60.00 Ry     beta= 0.30
     Davidson diagonalization with overlap
     ethr =  5.32E-11,  avg # of iterations =  5.0

     negative rho (up, down):  1.321E-02 0.000E+00

     total cpu time spent up to now is     3034.0 secs

     total energy              =    -525.35856726 Ry
     estimated scf accuracy    <       0.00000002 Ry

     iteration # 16     ecut=    60.00 Ry     beta= 0.30
     Davidson diagonalization with overlap
     ethr =  2.70E-11,  avg # of iterations =  1.0

     negative rho (up, down):  1.321E-02 0.000E+00

     total cpu time spent up to now is     3049.9 secs

     total energy              =    -525.35856727 Ry
     estimated scf accuracy    <       0.00000002 Ry

     iteration # 17     ecut=    60.00 Ry     beta= 0.30
     Davidson diagonalization with overlap
     ethr =  2.70E-11,  avg # of iterations =  1.0

     negative rho (up, down):  1.321E-02 0.000E+00

     total cpu time spent up to now is     3063.1 secs

     total energy              =    -525.35856726 Ry
     estimated scf accuracy    <       0.00000003 Ry

     iteration # 18     ecut=    60.00 Ry     beta= 0.30
     Davidson diagonalization with overlap
     ethr =  2.70E-11,  avg # of iterations =  5.0

     negative rho (up, down):  1.321E-02 0.000E+00

     total cpu time spent up to now is     3080.2 secs

     total energy              =    -525.35856726 Ry
     estimated scf accuracy    <          5.2E-09 Ry

     iteration # 19     ecut=    60.00 Ry     beta= 0.30
     Davidson diagonalization with overlap
     ethr =  7.85E-12,  avg # of iterations =  2.0

     negative rho (up, down):  1.321E-02 0.000E+00

     total cpu time spent up to now is     3093.8 secs

     total energy              =    -525.35856726 Ry
     estimated scf accuracy    <          2.4E-09 Ry

     iteration # 20     ecut=    60.00 Ry     beta= 0.30
     Davidson diagonalization with overlap
     ethr =  3.61E-12,  avg # of iterations =  5.0

     negative rho (up, down):  1.321E-02 0.000E+00

     total cpu time spent up to now is     3107.4 secs

     End of self-consistent calculation

          k = 0.0000 0.0000 0.0000 (120209 PWs)   bands (ev):

   -90.0964 -56.9111 -55.8713 -55.8712 -22.1212 -21.6679 -17.4928 -17.4923
   -17.4700 -17.4694 -13.3252 -13.3248 -13.1213 -13.1209 -13.1077 -12.7769
   -10.1326  -9.9283  -9.9274  -9.6046  -9.6035  -9.1022  -9.1008  -9.0734
    -9.0721  -8.7634  -6.6355  -6.6352  -6.1713  -6.1710  -4.4331  -4.2548
    -4.2546

     highest occupied level (ev):    -4.2546

!    total energy              =    -525.35856726 Ry
     estimated scf accuracy    <          4.7E-10 Ry

     The total energy is the sum of the following terms:
     one-electron contribution =   -2329.38397193 Ry
     hartree contribution      =    1168.85082981 Ry
     xc contribution           =     -88.20388418 Ry
     ewald contribution        =     861.19103214 Ry
     one-center paw contrib.   =    -137.81257310 Ry

     convergence has been achieved in  20 iterations

     negative rho (up, down):  1.321E-02 0.000E+00

     Forces acting on atoms (cartesian axes, Ry/au):

     atom    1 type  2   force =     0.00000000    0.00000000    0.00000000
     atom    2 type  1   force =    -0.00001027    0.00000000    0.00024104
     atom    3 type  1   force =    -0.00005060    0.00008573    0.00024654
     atom    4 type  1   force =     0.00016670   -0.00025021    0.00024665
     atom    5 type  1   force =     0.00016670    0.00025021    0.00024665
     atom    6 type  1   force =    -0.00005060   -0.00008573    0.00024654
     atom    7 type  3   force =    -0.00189520    0.00000000   -0.00110380
     atom    8 type  3   force =    -0.00057971   -0.00184473   -0.00110135
     atom    9 type  3   force =     0.00145310   -0.00103503   -0.00109663
     atom   10 type  3   force =     0.00145310    0.00103503   -0.00109663
     atom   11 type  3   force =    -0.00057971    0.00184473   -0.00110135
     atom   12 type  1   force =    -0.00016670   -0.00025021   -0.00024665
     atom   13 type  1   force =     0.00005060    0.00008573   -0.00024654
     atom   14 type  1   force =     0.00001027    0.00000000   -0.00024104
     atom   15 type  1   force =     0.00005060   -0.00008573   -0.00024654
     atom   16 type  1   force =    -0.00016670    0.00025021   -0.00024665
     atom   17 type  3   force =    -0.00145310   -0.00103503    0.00109663
     atom   18 type  3   force =     0.00057971   -0.00184473    0.00110135
     atom   19 type  3   force =     0.00189520    0.00000000    0.00110380
     atom   20 type  3   force =     0.00057971    0.00184473    0.00110135
     atom   21 type  3   force =    -0.00145310    0.00103503    0.00109663

     Total force =     0.006926     Total SCF correction =     0.000048
     Energy error            =      1.3E-04 Ry
     Gradient error          =      1.9E-03 Ry/Bohr

     number of scf cycles    =  10
     number of bfgs steps    =   8

     energy             old  =    -525.3584369355 Ry
     energy             new  =    -525.3585672620 Ry

     CASE: energy            _new < energy            _old

     new trust radius        =       0.0169858782 bohr
     new conv_thr            =       0.0000000013 Ry


ATOMIC_POSITIONS (angstrom)
Fe               8.2809111300        8.2809111300        8.2809111300
C                9.5008782606        8.2809111300        9.9252911603
C                8.6579859858        9.4409776147        9.9253253277
C                7.2943396006        8.9976800665        9.9253618568
C                7.2943396006        7.5641421935        9.9253618568
C                8.6579859858        7.1208446453        9.9253253277
H               10.5881364290        8.2809111300        9.9136127718
H                8.9939135643       10.4749985398        9.9136304526
H                6.4145613108        9.6369847078        9.9136519215
H                6.4145613108        6.9248375622        9.9136519215
H                8.9939135643        6.0868237302        9.9136304526
C                9.2674826694        8.9976800665        6.6364604032
C                7.9038362742        9.4409776147        6.6364969323
C                7.0609439994        8.2809111300        6.6365310997
C                7.9038362742        7.1208446453        6.6364969323
C                9.2674826694        7.5641421935        6.6364604032
H               10.1472609492        9.6369847078        6.6481703385
H                7.5679086957       10.4749985398        6.6481918074
H                5.9736858310        8.2809111300        6.6482094882
H                7.5679086957        6.0868237302        6.6481918074
H               10.1472609492        6.9248375622        6.6481703385



     Writing config-only to output data dir /home/duets/qe_workdirs/ferrocene__ring2_rotation_deg__+36/ferrocene__ring2_rotation_deg__+36.save/ :
     XML data file
     NEW-OLD atomic charge density approx. for the potential

     Check: negative core charge=   -0.000002

     negative rho (up, down):  1.323E-02 0.000E+00

     total cpu time spent up to now is     3125.6 secs

     Self-consistent Calculation

     iteration #  1     ecut=    60.00 Ry     beta= 0.30
     Davidson diagonalization with overlap
     ethr =  1.00E-06,  avg # of iterations =  9.0

     negative rho (up, down):  1.322E-02 0.000E+00

     total cpu time spent up to now is     3143.6 secs

     total energy              =    -525.35866819 Ry
     estimated scf accuracy    <       0.00021427 Ry

     iteration #  2     ecut=    60.00 Ry     beta= 0.30
     Davidson diagonalization with overlap
     ethr =  3.25E-07,  avg # of iterations =  2.0

     negative rho (up, down):  1.322E-02 0.000E+00

     total cpu time spent up to now is     3159.9 secs

     total energy              =    -525.35865703 Ry
     estimated scf accuracy    <       0.00009890 Ry

     iteration #  3     ecut=    60.00 Ry     beta= 0.30
     Davidson diagonalization with overlap
     ethr =  1.50E-07,  avg # of iterations =  5.0

     negative rho (up, down):  1.322E-02 0.000E+00

     total cpu time spent up to now is     3174.4 secs

     total energy              =    -525.35868684 Ry
     estimated scf accuracy    <       0.00006276 Ry

     iteration #  4     ecut=    60.00 Ry     beta= 0.30
     Davidson diagonalization with overlap
     ethr =  9.51E-08,  avg # of iterations =  2.0

     negative rho (up, down):  1.321E-02 0.000E+00

     total cpu time spent up to now is     3190.8 secs

     total energy              =    -525.35869206 Ry
     estimated scf accuracy    <       0.00003139 Ry

     iteration #  5     ecut=    60.00 Ry     beta= 0.30
     Davidson diagonalization with overlap
     ethr =  4.76E-08,  avg # of iterations =  2.0

     negative rho (up, down):  1.321E-02 0.000E+00

     total cpu time spent up to now is     3203.7 secs

     total energy              =    -525.35867434 Ry
     estimated scf accuracy    <       0.00003391 Ry

     iteration #  6     ecut=    60.00 Ry     beta= 0.30
     Davidson diagonalization with overlap
     ethr =  4.76E-08,  avg # of iterations =  8.0

     negative rho (up, down):  1.320E-02 0.000E+00

     total cpu time spent up to now is     3222.0 secs

     total energy              =    -525.35870225 Ry
     estimated scf accuracy    <       0.00031480 Ry

     iteration #  7     ecut=    60.00 Ry     beta= 0.30
     Davidson diagonalization with overlap
     ethr =  4.76E-08,  avg # of iterations =  2.0

     negative rho (up, down):  1.320E-02 0.000E+00

     total cpu time spent up to now is     3235.9 secs

     total energy              =    -525.35869594 Ry
     estimated scf accuracy    <       0.00022057 Ry

     iteration #  8     ecut=    60.00 Ry     beta= 0.30
     Davidson diagonalization with overlap
     ethr =  4.76E-08,  avg # of iterations =  5.0

     negative rho (up, down):  1.320E-02 0.000E+00

     total cpu time spent up to now is     3249.6 secs

     total energy              =    -525.35869081 Ry
     estimated scf accuracy    <       0.00011801 Ry

     iteration #  9     ecut=    60.00 Ry     beta= 0.30
     Davidson diagonalization with overlap
     ethr =  4.76E-08,  avg # of iterations =  4.0

     negative rho (up, down):  1.320E-02 0.000E+00

     total cpu time spent up to now is     3266.3 secs

     total energy              =    -525.35869318 Ry
     estimated scf accuracy    <       0.00004865 Ry

     iteration # 10     ecut=    60.00 Ry     beta= 0.30
     Davidson diagonalization with overlap
     ethr =  4.76E-08,  avg # of iterations =  1.0

     negative rho (up, down):  1.320E-02 0.000E+00

     total cpu time spent up to now is     3279.4 secs

     total energy              =    -525.35868968 Ry
     estimated scf accuracy    <       0.00004368 Ry

     iteration # 11     ecut=    60.00 Ry     beta= 0.30
     Davidson diagonalization with overlap
     ethr =  4.76E-08,  avg # of iterations =  2.0

     negative rho (up, down):  1.320E-02 0.000E+00

     total cpu time spent up to now is     3295.7 secs

     total energy              =    -525.35868882 Ry
     estimated scf accuracy    <       0.00001864 Ry

     iteration # 12     ecut=    60.00 Ry     beta= 0.30
     Davidson diagonalization with overlap
     ethr =  2.82E-08,  avg # of iterations =  5.0

     negative rho (up, down):  1.320E-02 0.000E+00

     total cpu time spent up to now is     3309.6 secs

     total energy              =    -525.35869098 Ry
     estimated scf accuracy    <       0.00000006 Ry

     iteration # 13     ecut=    60.00 Ry     beta= 0.30
     Davidson diagonalization with overlap
     ethr =  9.44E-11,  avg # of iterations =  9.0

     negative rho (up, down):  1.320E-02 0.000E+00

     total cpu time spent up to now is     3330.4 secs

     total energy              =    -525.35869130 Ry
     estimated scf accuracy    <       0.00000005 Ry

     iteration # 14     ecut=    60.00 Ry     beta= 0.30
     Davidson diagonalization with overlap
     ethr =  6.89E-11,  avg # of iterations =  2.0

     negative rho (up, down):  1.320E-02 0.000E+00

     total cpu time spent up to now is     3343.9 secs

     total energy              =    -525.35869129 Ry
     estimated scf accuracy    <       0.00000003 Ry

     iteration # 15     ecut=    60.00 Ry     beta= 0.30
     Davidson diagonalization with overlap
     ethr =  4.59E-11,  avg # of iterations =  7.0

     negative rho (up, down):  1.320E-02 0.000E+00

     total cpu time spent up to now is     3362.2 secs

     total energy              =    -525.35869131 Ry
     estimated scf accuracy    <       0.00000048 Ry

     iteration # 16     ecut=    60.00 Ry     beta= 0.30
     Davidson diagonalization with overlap
     ethr =  4.59E-11,  avg # of iterations =  5.0

     negative rho (up, down):  1.320E-02 0.000E+00

     total cpu time spent up to now is     3376.6 secs

     total energy              =    -525.35869129 Ry
     estimated scf accuracy    <       0.00000023 Ry

     iteration # 17     ecut=    60.00 Ry     beta= 0.30
     Davidson diagonalization with overlap
     ethr =  4.59E-11,  avg # of iterations =  5.0

     negative rho (up, down):  1.320E-02 0.000E+00

     total cpu time spent up to now is     3390.9 secs

     total energy              =    -525.35869130 Ry
     estimated scf accuracy    <       0.00000002 Ry

     iteration # 18     ecut=    60.00 Ry     beta= 0.30
     Davidson diagonalization with overlap
     ethr =  2.46E-11,  avg # of iterations =  2.0

     negative rho (up, down):  1.320E-02 0.000E+00

     total cpu time spent up to now is     3407.2 secs

     total energy              =    -525.35869131 Ry
     estimated scf accuracy    <       0.00000003 Ry

     iteration # 19     ecut=    60.00 Ry     beta= 0.30
     Davidson diagonalization with overlap
     ethr =  2.46E-11,  avg # of iterations =  1.0

     negative rho (up, down):  1.320E-02 0.000E+00

     total cpu time spent up to now is     3420.2 secs

     total energy              =    -525.35869131 Ry
     estimated scf accuracy    <       0.00000004 Ry

     iteration # 20     ecut=    60.00 Ry     beta= 0.30
     Davidson diagonalization with overlap
     ethr =  2.46E-11,  avg # of iterations =  2.0

     negative rho (up, down):  1.320E-02 0.000E+00

     total cpu time spent up to now is     3436.1 secs

     total energy              =    -525.35869131 Ry
     estimated scf accuracy    <       0.00000004 Ry

     iteration # 21     ecut=    60.00 Ry     beta= 0.30
     Davidson diagonalization with overlap
     ethr =  2.46E-11,  avg # of iterations =  1.0

     negative rho (up, down):  1.320E-02 0.000E+00

     total cpu time spent up to now is     3449.0 secs

     total energy              =    -525.35869130 Ry
     estimated scf accuracy    <       0.00000004 Ry

     iteration # 22     ecut=    60.00 Ry     beta= 0.30
     Davidson diagonalization with overlap
     ethr =  2.46E-11,  avg # of iterations =  3.0

     negative rho (up, down):  1.320E-02 0.000E+00

     total cpu time spent up to now is     3462.4 secs

     total energy              =    -525.35869130 Ry
     estimated scf accuracy    <       0.00000002 Ry

     iteration # 23     ecut=    60.00 Ry     beta= 0.30
     Davidson diagonalization with overlap
     ethr =  2.44E-11,  avg # of iterations =  5.0

     negative rho (up, down):  1.320E-02 0.000E+00

     total cpu time spent up to now is     3479.6 secs

     total energy              =    -525.35869130 Ry
     estimated scf accuracy    <       0.00000001 Ry

     iteration # 24     ecut=    60.00 Ry     beta= 0.30
     Davidson diagonalization with overlap
     ethr =  2.18E-11,  avg # of iterations =  2.0

     negative rho (up, down):  1.320E-02 0.000E+00

     total cpu time spent up to now is     3492.9 secs

     total energy              =    -525.35869130 Ry
     estimated scf accuracy    <          8.0E-09 Ry

     iteration # 25     ecut=    60.00 Ry     beta= 0.30
     Davidson diagonalization with overlap
     ethr =  1.22E-11,  avg # of iterations =  5.0

     negative rho (up, down):  1.320E-02 0.000E+00

     total cpu time spent up to now is     3510.1 secs

     total energy              =    -525.35869130 Ry
     estimated scf accuracy    <          1.7E-09 Ry

     iteration # 26     ecut=    60.00 Ry     beta= 0.30
     Davidson diagonalization with overlap
     ethr =  2.54E-12,  avg # of iterations =  2.0

     negative rho (up, down):  1.320E-02 0.000E+00

     total cpu time spent up to now is     3523.6 secs

     total energy              =    -525.35869130 Ry
     estimated scf accuracy    <          2.4E-09 Ry

     iteration # 27     ecut=    60.00 Ry     beta= 0.30
     Davidson diagonalization with overlap
     ethr =  2.54E-12,  avg # of iterations =  4.0

     negative rho (up, down):  1.320E-02 0.000E+00

     total cpu time spent up to now is     3540.2 secs

     End of self-consistent calculation

          k = 0.0000 0.0000 0.0000 (120209 PWs)   bands (ev):

   -90.1018 -56.9155 -55.8791 -55.8790 -22.1315 -21.6702 -17.5001 -17.4993
   -17.4771 -17.4764 -13.3336 -13.3318 -13.1246 -13.1227 -13.1169 -12.7793
   -10.1369  -9.9365  -9.9362  -9.6088  -9.6084  -9.1067  -9.1043  -9.0771
    -9.0745  -8.7565  -6.6439  -6.6430  -6.1789  -6.1779  -4.4367  -4.2686
    -4.2685

     highest occupied level (ev):    -4.2685

!    total energy              =    -525.35869130 Ry
     estimated scf accuracy    <          8.7E-10 Ry

     The total energy is the sum of the following terms:
     one-electron contribution =   -2331.78191514 Ry
     hartree contribution      =    1170.04398980 Ry
     xc contribution           =     -88.21666063 Ry
     ewald contribution        =     862.40885860 Ry
     one-center paw contrib.   =    -137.81296394 Ry

     convergence has been achieved in  27 iterations

     negative rho (up, down):  1.320E-02 0.000E+00

     Forces acting on atoms (cartesian axes, Ry/au):

     atom    1 type  2   force =     0.00000000    0.00000000    0.00000000
     atom    2 type  1   force =    -0.00032907    0.00000000    0.00083971
     atom    3 type  1   force =     0.00005561   -0.00041187    0.00083598
     atom    4 type  1   force =    -0.00016478    0.00050896    0.00087754
     atom    5 type  1   force =    -0.00016478   -0.00050896    0.00087754
     atom    6 type  1   force =     0.00005561    0.00041187    0.00083598
     atom    7 type  3   force =    -0.00116170    0.00000000   -0.00080260
     atom    8 type  3   force =    -0.00035391   -0.00105991   -0.00079369
     atom    9 type  3   force =     0.00121232   -0.00090267   -0.00078147
     atom   10 type  3   force =     0.00121232    0.00090267   -0.00078147
     atom   11 type  3   force =    -0.00035391    0.00105991   -0.00079369
     atom   12 type  1   force =     0.00016478    0.00050896   -0.00087754
     atom   13 type  1   force =    -0.00005561   -0.00041187   -0.00083598
     atom   14 type  1   force =     0.00032907    0.00000000   -0.00083971
     atom   15 type  1   force =    -0.00005561    0.00041187   -0.00083598
     atom   16 type  1   force =     0.00016478   -0.00050896   -0.00087754
     atom   17 type  3   force =    -0.00121232   -0.00090267    0.00078147
     atom   18 type  3   force =     0.00035391   -0.00105991    0.00079369
     atom   19 type  3   force =     0.00116170    0.00000000    0.00080260
     atom   20 type  3   force =     0.00035391    0.00105991    0.00079369
     atom   21 type  3   force =    -0.00121232    0.00090267    0.00078147

     Total force =     0.005694     Total SCF correction =     0.000050
     Energy error            =      1.2E-04 Ry
     Gradient error          =      1.2E-03 Ry/Bohr

     number of scf cycles    =  11
     number of bfgs steps    =   9

     energy             old  =    -525.3585672620 Ry
     energy             new  =    -525.3586912986 Ry

     CASE: energy            _new < energy            _old

     new trust radius        =       0.0111160141 bohr
     new conv_thr            =       0.0000000012 Ry


ATOMIC_POSITIONS (angstrom)
Fe               8.2809111300        8.2809111300        8.2809111300
C                9.5004936461        8.2809111300        9.9229064044
C                8.6580034071        9.4405088868        9.9229464575
C                7.2943989872        8.9979271947        9.9230234949
C                7.2943989872        7.5638950653        9.9230234949
C                8.6580034071        7.1213133732        9.9229464575
H               10.5874033497        8.2809111300        9.9077970801
H                8.9937029933       10.4743038399        9.9078256584
H                6.4154047183        9.6363755176        9.9078623195
H                6.4154047183        6.9254467524        9.9078623195
H                8.9937029933        6.0875184301        9.9078256584
C                9.2674232828        8.9979271947        6.6387987651
C                7.9038188529        9.4405088868        6.6388758025
C                7.0613286139        8.2809111300        6.6389158556
C                7.9038188529        7.1213133732        6.6388758025
C                9.2674232828        7.5638950653        6.6387987651
H               10.1464175417        9.6363755176        6.6539599405
H                7.5681192667       10.4743038399        6.6539966016
H                5.9744189103        8.2809111300        6.6540251799
H                7.5681192667        6.0875184301        6.6539966016
H               10.1464175417        6.9254467524        6.6539599405



     Writing config-only to output data dir /home/duets/qe_workdirs/ferrocene__ring2_rotation_deg__+36/ferrocene__ring2_rotation_deg__+36.save/ :
     XML data file
     NEW-OLD atomic charge density approx. for the potential

     Check: negative core charge=   -0.000002

     negative rho (up, down):  1.321E-02 0.000E+00

     total cpu time spent up to now is     3555.5 secs

     Self-consistent Calculation

     iteration #  1     ecut=    60.00 Ry     beta= 0.30
     Davidson diagonalization with overlap
     ethr =  1.00E-06,  avg # of iterations =  7.0

     negative rho (up, down):  1.321E-02 0.000E+00

     total cpu time spent up to now is     3575.1 secs

     total energy              =    -525.35868612 Ry
     estimated scf accuracy    <       0.00006828 Ry

     iteration #  2     ecut=    60.00 Ry     beta= 0.30
     Davidson diagonalization with overlap
     ethr =  1.03E-07,  avg # of iterations =  7.0

     negative rho (up, down):  1.320E-02 0.000E+00

     total cpu time spent up to now is     3590.5 secs

     total energy              =    -525.35872764 Ry
     estimated scf accuracy    <       0.00004817 Ry

     iteration #  3     ecut=    60.00 Ry     beta= 0.30
     Davidson diagonalization with overlap
     ethr =  7.30E-08,  avg # of iterations =  4.0

     negative rho (up, down):  1.320E-02 0.000E+00

     total cpu time spent up to now is     3603.8 secs

     total energy              =    -525.35872738 Ry
     estimated scf accuracy    <       0.00001791 Ry

     iteration #  4     ecut=    60.00 Ry     beta= 0.30
     Davidson diagonalization with overlap
     ethr =  2.71E-08,  avg # of iterations =  5.0

     negative rho (up, down):  1.320E-02 0.000E+00

     total cpu time spent up to now is     3621.4 secs

     total energy              =    -525.35873366 Ry
     estimated scf accuracy    <       0.00000644 Ry

     iteration #  5     ecut=    60.00 Ry     beta= 0.30
     Davidson diagonalization with overlap
     ethr =  9.76E-09,  avg # of iterations =  6.0

     negative rho (up, down):  1.320E-02 0.000E+00

     total cpu time spent up to now is     3634.9 secs

     total energy              =    -525.35873244 Ry
     estimated scf accuracy    <       0.00000360 Ry

     iteration #  6     ecut=    60.00 Ry     beta= 0.30
     Davidson diagonalization with overlap
     ethr =  5.46E-09,  avg # of iterations =  4.0

     negative rho (up, down):  1.320E-02 0.000E+00

     total cpu time spent up to now is     3652.4 secs

     total energy              =    -525.35873367 Ry
     estimated scf accuracy    <       0.00000028 Ry

     iteration #  7     ecut=    60.00 Ry     beta= 0.30
     Davidson diagonalization with overlap
     ethr =  4.18E-10,  avg # of iterations =  6.0

     negative rho (up, down):  1.320E-02 0.000E+00

     total cpu time spent up to now is     3667.1 secs

     total energy              =    -525.35873371 Ry
     estimated scf accuracy    <       0.00000020 Ry

     iteration #  8     ecut=    60.00 Ry     beta= 0.30
     Davidson diagonalization with overlap
     ethr =  3.05E-10,  avg # of iterations =  7.0

     negative rho (up, down):  1.320E-02 0.000E+00

     total cpu time spent up to now is     3685.6 secs

     total energy              =    -525.35873329 Ry
     estimated scf accuracy    <       0.00000371 Ry

     iteration #  9     ecut=    60.00 Ry     beta= 0.30
     Davidson diagonalization with overlap
     ethr =  3.05E-10,  avg # of iterations =  7.0

     negative rho (up, down):  1.320E-02 0.000E+00

     total cpu time spent up to now is     3701.1 secs

     total energy              =    -525.35873377 Ry
     estimated scf accuracy    <       0.00000039 Ry

     iteration # 10     ecut=    60.00 Ry     beta= 0.30
     Davidson diagonalization with overlap
     ethr =  3.05E-10,  avg # of iterations =  5.0

     negative rho (up, down):  1.320E-02 0.000E+00

     total cpu time spent up to now is     3717.8 secs

     total energy              =    -525.35873381 Ry
     estimated scf accuracy    <          8.7E-09 Ry

     iteration # 11     ecut=    60.00 Ry     beta= 0.30
     Davidson diagonalization with overlap
     ethr =  1.31E-11,  avg # of iterations =  5.0

     negative rho (up, down):  1.320E-02 0.000E+00

     total cpu time spent up to now is     3733.0 secs

     total energy              =    -525.35873382 Ry
     estimated scf accuracy    <          4.6E-09 Ry

     iteration # 12     ecut=    60.00 Ry     beta= 0.30
     Davidson diagonalization with overlap
     ethr =  6.98E-12,  avg # of iterations =  4.0

     negative rho (up, down):  1.320E-02 0.000E+00

     total cpu time spent up to now is     3749.5 secs

     total energy              =    -525.35873382 Ry
     estimated scf accuracy    <          9.8E-09 Ry

     iteration # 13     ecut=    60.00 Ry     beta= 0.30
     Davidson diagonalization with overlap
     ethr =  6.98E-12,  avg # of iterations =  2.0

     negative rho (up, down):  1.320E-02 0.000E+00

     total cpu time spent up to now is     3762.7 secs

     total energy              =    -525.35873381 Ry
     estimated scf accuracy    <          7.5E-09 Ry

     iteration # 14     ecut=    60.00 Ry     beta= 0.30
     Davidson diagonalization with overlap
     ethr =  6.98E-12,  avg # of iterations =  5.0

     negative rho (up, down):  1.320E-02 0.000E+00

     total cpu time spent up to now is     3776.8 secs

     End of self-consistent calculation

          k = 0.0000 0.0000 0.0000 (120209 PWs)   bands (ev):

   -90.1035 -56.9172 -55.8819 -55.8818 -22.1404 -21.6751 -17.5057 -17.5055
   -17.4829 -17.4826 -13.3403 -13.3375 -13.1285 -13.1256 -13.1248 -12.7835
   -10.1413  -9.9413  -9.9400  -9.6127  -9.6113  -9.1117  -9.1062  -9.0811
    -9.0757  -8.7559  -6.6503  -6.6500  -6.1829  -6.1827  -4.4377  -4.2749
    -4.2740

     highest occupied level (ev):    -4.2740

!    total energy              =    -525.35873381 Ry
     estimated scf accuracy    <          7.0E-10 Ry

     The total energy is the sum of the following terms:
     one-electron contribution =   -2333.22000219 Ry
     hartree contribution      =    1170.75928440 Ry
     xc contribution           =     -88.22833329 Ry
     ewald contribution        =     863.14366188 Ry
     one-center paw contrib.   =    -137.81334462 Ry

     convergence has been achieved in  14 iterations

     negative rho (up, down):  1.320E-02 0.000E+00

     Forces acting on atoms (cartesian axes, Ry/au):

     atom    1 type  2   force =     0.00000000    0.00000000    0.00000000
     atom    2 type  1   force =     0.00056104    0.00000000    0.00105176
     atom    3 type  1   force =    -0.00017399    0.00066810    0.00106378
     atom    4 type  1   force =     0.00041205   -0.00094259    0.00102978
     atom    5 type  1   force =     0.00041205    0.00094259    0.00102978
     atom    6 type  1   force =    -0.00017399   -0.00066810    0.00106378
     atom    7 type  3   force =    -0.00074626    0.00000000   -0.00052347
     atom    8 type  3   force =    -0.00018500   -0.00074457   -0.00052264
     atom    9 type  3   force =     0.00009367   -0.00000495   -0.00052047
     atom   10 type  3   force =     0.00009367    0.00000495   -0.00052047
     atom   11 type  3   force =    -0.00018500    0.00074457   -0.00052264
     atom   12 type  1   force =    -0.00041205   -0.00094259   -0.00102978
     atom   13 type  1   force =     0.00017399    0.00066810   -0.00106378
     atom   14 type  1   force =    -0.00056104    0.00000000   -0.00105176
     atom   15 type  1   force =     0.00017399   -0.00066810   -0.00106378
     atom   16 type  1   force =    -0.00041205    0.00094259   -0.00102978
     atom   17 type  3   force =    -0.00009367   -0.00000495    0.00052047
     atom   18 type  3   force =     0.00018500   -0.00074457    0.00052264
     atom   19 type  3   force =     0.00074626    0.00000000    0.00052347
     atom   20 type  3   force =     0.00018500    0.00074457    0.00052264
     atom   21 type  3   force =    -0.00009367    0.00000495    0.00052047

     Total force =     0.004897     Total SCF correction =     0.000067
     Energy error            =      4.3E-05 Ry
     Gradient error          =      1.1E-03 Ry/Bohr

     number of scf cycles    =  12
     number of bfgs steps    =  10

     energy             old  =    -525.3586912986 Ry
     energy             new  =    -525.3587338148 Ry

     CASE: energy            _new < energy            _old

     new trust radius        =       0.0046986221 bohr
     new conv_thr            =       0.0000000004 Ry


ATOMIC_POSITIONS (angstrom)
Fe               8.2809111300        8.2809111300        8.2809111300
C                9.5005569731        8.2809111300        9.9227601303
C                8.6578614764        9.4405995812        9.9228092004
C                7.2947732612        8.9973828199        9.9228815991
C                7.2947732612        7.5644394401        9.9228815991
C                8.6578614764        7.1212226788        9.9228092004
H               10.5866044270        8.2809111300        9.9054425258
H                8.9934918913       10.4735322156        9.9054758963
H                6.4158366762        9.6361001453        9.9055197178
H                6.4158366762        6.9257221247        9.9055197178
H                8.9934918913        6.0882900544        9.9054758963
C                9.2670490088        8.9973828199        6.6389406609
C                7.9039607836        9.4405995812        6.6390130596
C                7.0612652869        8.2809111300        6.6390621297
C                7.9039607836        7.1212226788        6.6390130596
C                9.2670490088        7.5644394401        6.6389406609
H               10.1459855838        9.6361001453        6.6563025422
H                7.5683303687       10.4735322156        6.6563463637
H                5.9752178330        8.2809111300        6.6563797342
H                7.5683303687        6.0882900544        6.6563463637
H               10.1459855838        6.9257221247        6.6563025422



     Writing config-only to output data dir /home/duets/qe_workdirs/ferrocene__ring2_rotation_deg__+36/ferrocene__ring2_rotation_deg__+36.save/ :
     XML data file
     NEW-OLD atomic charge density approx. for the potential

     Check: negative core charge=   -0.000002

     negative rho (up, down):  1.320E-02 0.000E+00

     total cpu time spent up to now is     3795.8 secs

     Self-consistent Calculation

     iteration #  1     ecut=    60.00 Ry     beta= 0.30
     Davidson diagonalization with overlap
     ethr =  1.00E-06,  avg # of iterations =  3.0

     Threshold (ethr) on eigenvalues was too large:
     Diagonalizing with lowered threshold

     Davidson diagonalization with overlap
     ethr =  8.19E-09,  avg # of iterations =  7.0

     negative rho (up, down):  1.320E-02 0.000E+00

     total cpu time spent up to now is     3824.0 secs

     total energy              =    -525.35875318 Ry
     estimated scf accuracy    <       0.00001145 Ry

     iteration #  2     ecut=    60.00 Ry     beta= 0.30
     Davidson diagonalization with overlap
     ethr =  1.73E-08,  avg # of iterations =  1.0

     negative rho (up, down):  1.320E-02 0.000E+00

     total cpu time spent up to now is     3836.8 secs

     total energy              =    -525.35875269 Ry
     estimated scf accuracy    <       0.00000415 Ry

     iteration #  3     ecut=    60.00 Ry     beta= 0.30
     Davidson diagonalization with overlap
     ethr =  6.29E-09,  avg # of iterations =  4.0

     negative rho (up, down):  1.320E-02 0.000E+00

     total cpu time spent up to now is     3853.4 secs

     total energy              =    -525.35875348 Ry
     estimated scf accuracy    <       0.00000051 Ry

     iteration #  4     ecut=    60.00 Ry     beta= 0.30
     Davidson diagonalization with overlap
     ethr =  7.69E-10,  avg # of iterations =  5.0

     negative rho (up, down):  1.320E-02 0.000E+00

     total cpu time spent up to now is     3867.8 secs

     total energy              =    -525.35875339 Ry
     estimated scf accuracy    <       0.00000047 Ry

     iteration #  5     ecut=    60.00 Ry     beta= 0.30
     Davidson diagonalization with overlap
     ethr =  7.11E-10,  avg # of iterations =  6.0

     negative rho (up, down):  1.320E-02 0.000E+00

     total cpu time spent up to now is     3883.2 secs

     total energy              =    -525.35875332 Ry
     estimated scf accuracy    <       0.00000192 Ry

     iteration #  6     ecut=    60.00 Ry     beta= 0.30
     Davidson diagonalization with overlap
     ethr =  7.11E-10,  avg # of iterations =  6.0

     negative rho (up, down):  1.320E-02 0.000E+00

     total cpu time spent up to now is     3900.1 secs

     total energy              =    -525.35875348 Ry
     estimated scf accuracy    <       0.00000043 Ry

     iteration #  7     ecut=    60.00 Ry     beta= 0.30
     Davidson diagonalization with overlap
     ethr =  6.57E-10,  avg # of iterations =  5.0

     negative rho (up, down):  1.320E-02 0.000E+00

     total cpu time spent up to now is     3913.9 secs

     total energy              =    -525.35875357 Ry
     estimated scf accuracy    <       0.00000014 Ry

     iteration #  8     ecut=    60.00 Ry     beta= 0.30
     Davidson diagonalization with overlap
     ethr =  2.18E-10,  avg # of iterations =  2.0

     negative rho (up, down):  1.320E-02 0.000E+00

     total cpu time spent up to now is     3930.2 secs

     total energy              =    -525.35875358 Ry
     estimated scf accuracy    <       0.00000005 Ry

     iteration #  9     ecut=    60.00 Ry     beta= 0.30
     Davidson diagonalization with overlap
     ethr =  7.24E-11,  avg # of iterations =  4.0

     negative rho (up, down):  1.320E-02 0.000E+00

     total cpu time spent up to now is     3944.0 secs

     total energy              =    -525.35875358 Ry
     estimated scf accuracy    <          2.2E-09 Ry

     iteration # 10     ecut=    60.00 Ry     beta= 0.30
     Davidson diagonalization with overlap
     ethr =  3.34E-12,  avg # of iterations =  7.0

     negative rho (up, down):  1.320E-02 0.000E+00

     total cpu time spent up to now is     3963.1 secs

     total energy              =    -525.35875359 Ry
     estimated scf accuracy    <          9.4E-09 Ry

     iteration # 11     ecut=    60.00 Ry     beta= 0.30
     Davidson diagonalization with overlap
     ethr =  3.34E-12,  avg # of iterations =  2.0

     negative rho (up, down):  1.320E-02 0.000E+00

     total cpu time spent up to now is     3976.1 secs

     total energy              =    -525.35875358 Ry
     estimated scf accuracy    <          7.3E-09 Ry

     iteration # 12     ecut=    60.00 Ry     beta= 0.30
     Davidson diagonalization with overlap
     ethr =  3.34E-12,  avg # of iterations =  3.0

     negative rho (up, down):  1.320E-02 0.000E+00

     total cpu time spent up to now is     3990.5 secs

     total energy              =    -525.35875358 Ry
     estimated scf accuracy    <          1.3E-09 Ry

     iteration # 13     ecut=    60.00 Ry     beta= 0.30
     Davidson diagonalization with overlap
     ethr =  2.03E-12,  avg # of iterations =  4.0

     negative rho (up, down):  1.320E-02 0.000E+00

     total cpu time spent up to now is     4006.7 secs

     End of self-consistent calculation

          k = 0.0000 0.0000 0.0000 (120209 PWs)   bands (ev):

   -90.1029 -56.9170 -55.8812 -55.8811 -22.1454 -21.6798 -17.5093 -17.5086
   -17.4864 -17.4858 -13.3436 -13.3409 -13.1313 -13.1291 -13.1285 -12.7872
   -10.1444  -9.9409  -9.9407  -9.6137  -9.6135  -9.1130  -9.1090  -9.0821
    -9.0779  -8.7593  -6.6549  -6.6541  -6.1848  -6.1840  -4.4370  -4.2742
    -4.2738

     highest occupied level (ev):    -4.2738

!    total energy              =    -525.35875358 Ry
     estimated scf accuracy    <          1.5E-10 Ry

     The total energy is the sum of the following terms:
     one-electron contribution =   -2333.60178058 Ry
     hartree contribution      =    1170.94997065 Ry
     xc contribution           =     -88.23467009 Ry
     ewald contribution        =     863.34129385 Ry
     one-center paw contrib.   =    -137.81356741 Ry

     convergence has been achieved in  13 iterations

     negative rho (up, down):  1.320E-02 0.000E+00

     Forces acting on atoms (cartesian axes, Ry/au):

     atom    1 type  2   force =     0.00000000    0.00000000    0.00000000
     atom    2 type  1   force =    -0.00058260    0.00000000    0.00088003
     atom    3 type  1   force =     0.00020566   -0.00049409    0.00088529
     atom    4 type  1   force =    -0.00034135    0.00071580    0.00092658
     atom    5 type  1   force =    -0.00034135   -0.00071580    0.00092658
     atom    6 type  1   force =     0.00020566    0.00049409    0.00088529
     atom    7 type  3   force =     0.00035118    0.00000000   -0.00035686
     atom    8 type  3   force =     0.00006449    0.00028117   -0.00034490
     atom    9 type  3   force =     0.00017713   -0.00016209   -0.00032416
     atom   10 type  3   force =     0.00017713    0.00016209   -0.00032416
     atom   11 type  3   force =     0.00006449   -0.00028117   -0.00034490
     atom   12 type  1   force =     0.00034135    0.00071580   -0.00092658
     atom   13 type  1   force =    -0.00020566   -0.00049409   -0.00088529
     atom   14 type  1   force =     0.00058260    0.00000000   -0.00088003
     atom   15 type  1   force =    -0.00020566    0.00049409   -0.00088529
     atom   16 type  1   force =     0.00034135   -0.00071580   -0.00092658
     atom   17 type  3   force =    -0.00017713   -0.00016209    0.00032416
     atom   18 type  3   force =    -0.00006449    0.00028117    0.00034490
     atom   19 type  3   force =    -0.00035118    0.00000000    0.00035686
     atom   20 type  3   force =    -0.00006449   -0.00028117    0.00034490
     atom   21 type  3   force =    -0.00017713    0.00016209    0.00032416

     Total force =     0.003797     Total SCF correction =     0.000020
     Energy error            =      2.0E-05 Ry
     Gradient error          =      9.3E-04 Ry/Bohr

     number of scf cycles    =  13
     number of bfgs steps    =  11

     energy             old  =    -525.3587338148 Ry
     energy             new  =    -525.3587535834 Ry

     CASE: energy            _new < energy            _old

     new trust radius        =       0.0023743118 bohr
     new conv_thr            =       0.0000000002 Ry


ATOMIC_POSITIONS (angstrom)
Fe               8.2809111300        8.2809111300        8.2809111300
C                9.5002049940        8.2809111300        9.9239662527
C                8.6578718360        9.4403460785        9.9240235989
C                7.2948501634        8.9974021783        9.9241138095
C                7.2948501634        7.5644200817        9.9241138095
C                8.6578718360        7.1214761815        9.9240235989
H               10.5861951329        8.2809111300        9.9049290148
H                8.9933585657       10.4731025643        9.9049718844
H                6.4162799980        9.6357809450        9.9050320906
H                6.4162799980        6.9260413250        9.9050320906
H                8.9933585657        6.0887197057        9.9049718844
C                9.2669721066        8.9974021783        6.6377084505
C                7.9039504240        9.4403460785        6.6377986611
C                7.0616172660        8.2809111300        6.6378560073
C                7.9039504240        7.1214761815        6.6377986611
C                9.2669721066        7.5644200817        6.6377084505
H               10.1455422620        9.6357809450        6.6567901694
H                7.5684636943       10.4731025643        6.6568503756
H                5.9756271271        8.2809111300        6.6568932452
H                7.5684636943        6.0887197057        6.6568503756
H               10.1455422620        6.9260413250        6.6567901694



     Writing config-only to output data dir /home/duets/qe_workdirs/ferrocene__ring2_rotation_deg__+36/ferrocene__ring2_rotation_deg__+36.save/ :
     XML data file
     NEW-OLD atomic charge density approx. for the potential

     Check: negative core charge=   -0.000002

     negative rho (up, down):  1.320E-02 0.000E+00

     total cpu time spent up to now is     4022.3 secs

     Self-consistent Calculation

     iteration #  1     ecut=    60.00 Ry     beta= 0.30
     Davidson diagonalization with overlap
     ethr =  1.00E-06,  avg # of iterations =  3.0

     Threshold (ethr) on eigenvalues was too large:
     Diagonalizing with lowered threshold

     Davidson diagonalization with overlap
     ethr =  7.66E-09,  avg # of iterations =  9.0

     negative rho (up, down):  1.320E-02 0.000E+00

     total cpu time spent up to now is     4051.6 secs

     total energy              =    -525.35877001 Ry
     estimated scf accuracy    <       0.00000655 Ry

     iteration #  2     ecut=    60.00 Ry     beta= 0.30
     Davidson diagonalization with overlap
     ethr =  9.92E-09,  avg # of iterations =  5.0

     negative rho (up, down):  1.320E-02 0.000E+00

     total cpu time spent up to now is     4068.9 secs

     total energy              =    -525.35876982 Ry
     estimated scf accuracy    <       0.00000987 Ry

     iteration #  3     ecut=    60.00 Ry     beta= 0.30
     Davidson diagonalization with overlap
     ethr =  9.92E-09,  avg # of iterations =  5.0

     negative rho (up, down):  1.321E-02 0.000E+00

     total cpu time spent up to now is     4082.8 secs

     total energy              =    -525.35877062 Ry
     estimated scf accuracy    <       0.00000176 Ry

     iteration #  4     ecut=    60.00 Ry     beta= 0.30
     Davidson diagonalization with overlap
     ethr =  2.66E-09,  avg # of iterations =  4.0

     negative rho (up, down):  1.321E-02 0.000E+00

     total cpu time spent up to now is     4096.4 secs

     total energy              =    -525.35877091 Ry
     estimated scf accuracy    <       0.00000033 Ry

     iteration #  5     ecut=    60.00 Ry     beta= 0.30
     Davidson diagonalization with overlap
     ethr =  4.98E-10,  avg # of iterations =  5.0

     negative rho (up, down):  1.321E-02 0.000E+00

     total cpu time spent up to now is     4113.3 secs

     total energy              =    -525.35877096 Ry
     estimated scf accuracy    <       0.00000022 Ry

     iteration #  6     ecut=    60.00 Ry     beta= 0.30
     Davidson diagonalization with overlap
     ethr =  3.32E-10,  avg # of iterations =  5.0

     negative rho (up, down):  1.321E-02 0.000E+00

     total cpu time spent up to now is     4127.6 secs

     total energy              =    -525.35877100 Ry
     estimated scf accuracy    <       0.00000013 Ry

     iteration #  7     ecut=    60.00 Ry     beta= 0.30
     Davidson diagonalization with overlap
     ethr =  1.95E-10,  avg # of iterations =  3.0

     negative rho (up, down):  1.321E-02 0.000E+00

     total cpu time spent up to now is     4144.1 secs

     total energy              =    -525.35877102 Ry
     estimated scf accuracy    <          6.3E-09 Ry

     iteration #  8     ecut=    60.00 Ry     beta= 0.30
     Davidson diagonalization with overlap
     ethr =  9.61E-12,  avg # of iterations =  9.0

     negative rho (up, down):  1.321E-02 0.000E+00

     total cpu time spent up to now is     4162.3 secs

     total energy              =    -525.35877102 Ry
     estimated scf accuracy    <       0.00000010 Ry

     iteration #  9     ecut=    60.00 Ry     beta= 0.30
     Davidson diagonalization with overlap
     ethr =  9.61E-12,  avg # of iterations =  6.0

     negative rho (up, down):  1.321E-02 0.000E+00

     total cpu time spent up to now is     4180.6 secs

     total energy              =    -525.35877103 Ry
     estimated scf accuracy    <          2.4E-09 Ry

     iteration # 10     ecut=    60.00 Ry     beta= 0.30
     Davidson diagonalization with overlap
     ethr =  3.69E-12,  avg # of iterations =  4.0

     negative rho (up, down):  1.321E-02 0.000E+00

     total cpu time spent up to now is     4194.8 secs

     total energy              =    -525.35877103 Ry
     estimated scf accuracy    <          1.3E-09 Ry

     iteration # 11     ecut=    60.00 Ry     beta= 0.30
     Davidson diagonalization with overlap
     ethr =  1.94E-12,  avg # of iterations =  2.0

     negative rho (up, down):  1.321E-02 0.000E+00

     total cpu time spent up to now is     4210.6 secs

     total energy              =    -525.35877103 Ry
     estimated scf accuracy    <          1.2E-09 Ry

     iteration # 12     ecut=    60.00 Ry     beta= 0.30
     Davidson diagonalization with overlap
     ethr =  1.87E-12,  avg # of iterations =  2.0

     negative rho (up, down):  1.321E-02 0.000E+00

     total cpu time spent up to now is     4223.9 secs

     total energy              =    -525.35877103 Ry
     estimated scf accuracy    <          4.2E-10 Ry

     iteration # 13     ecut=    60.00 Ry     beta= 0.30
     Davidson diagonalization with overlap
     ethr =  6.41E-13,  avg # of iterations =  4.0

     negative rho (up, down):  1.321E-02 0.000E+00

     total cpu time spent up to now is     4240.1 secs

     End of self-consistent calculation

          k = 0.0000 0.0000 0.0000 (120209 PWs)   bands (ev):

   -90.1004 -56.9151 -55.8781 -55.8779 -22.1473 -21.6836 -17.5105 -17.5099
   -17.4879 -17.4873 -13.3437 -13.3432 -13.1322 -13.1317 -13.1306 -12.7898
   -10.1463  -9.9380  -9.9379  -9.6139  -9.6137  -9.1122  -9.1118  -9.0810
    -9.0805  -8.7648  -6.6578  -6.6571  -6.1845  -6.1837  -4.4349  -4.2694
    -4.2693

     highest occupied level (ev):    -4.2693

!    total energy              =    -525.35877103 Ry
     estimated scf accuracy    <          8.3E-11 Ry

     The total energy is the sum of the following terms:
     one-electron contribution =   -2333.31293473 Ry
     hartree contribution      =    1170.80592576 Ry
     xc contribution           =     -88.23666620 Ry
     ewald contribution        =     863.19856518 Ry
     one-center paw contrib.   =    -137.81366104 Ry

     convergence has been achieved in  13 iterations

     negative rho (up, down):  1.321E-02 0.000E+00

     Forces acting on atoms (cartesian axes, Ry/au):

     atom    1 type  2   force =     0.00000000    0.00000000    0.00000000
     atom    2 type  1   force =     0.00008807    0.00000000    0.00050987
     atom    3 type  1   force =    -0.00005896   -0.00017179    0.00050252
     atom    4 type  1   force =    -0.00003446    0.00020095    0.00051858
     atom    5 type  1   force =    -0.00003446   -0.00020095    0.00051858
     atom    6 type  1   force =    -0.00005896    0.00017179    0.00050252
     atom    7 type  3   force =     0.00039661    0.00000000   -0.00019702
     atom    8 type  3   force =     0.00017161    0.00050352   -0.00018966
     atom    9 type  3   force =    -0.00030272    0.00021283   -0.00017585
     atom   10 type  3   force =    -0.00030272   -0.00021283   -0.00017585
     atom   11 type  3   force =     0.00017161   -0.00050352   -0.00018966
     atom   12 type  1   force =     0.00003446    0.00020095   -0.00051858
     atom   13 type  1   force =     0.00005896   -0.00017179   -0.00050252
     atom   14 type  1   force =    -0.00008807    0.00000000   -0.00050987
     atom   15 type  1   force =     0.00005896    0.00017179   -0.00050252
     atom   16 type  1   force =     0.00003446   -0.00020095   -0.00051858
     atom   17 type  3   force =     0.00030272    0.00021283    0.00017585
     atom   18 type  3   force =    -0.00017161    0.00050352    0.00018966
     atom   19 type  3   force =    -0.00039661    0.00000000    0.00019702
     atom   20 type  3   force =    -0.00017161   -0.00050352    0.00018966
     atom   21 type  3   force =     0.00030272   -0.00021283    0.00017585

     Total force =     0.002293     Total SCF correction =     0.000012
     Energy error            =      1.7E-05 Ry
     Gradient error          =      5.2E-04 Ry/Bohr

     number of scf cycles    =  14
     number of bfgs steps    =  12

     energy             old  =    -525.3587535834 Ry
     energy             new  =    -525.3587710293 Ry

     CASE: energy            _new < energy            _old

     new trust radius        =       0.0026934992 bohr
     new conv_thr            =       0.0000000002 Ry


ATOMIC_POSITIONS (angstrom)
Fe               8.2809111300        8.2809111300        8.2809111300
C                9.5002935457        8.2809111300        9.9253785657
C                8.6578035527        9.4402556274        9.9254327935
C                7.2948712830        8.9974699402        9.9255373796
C                7.2948712830        7.5643523198        9.9255373796
C                8.6578035527        7.1215666326        9.9254327935
H               10.5861587156        8.2809111300        9.9051143741
H                8.9933946372       10.4731651043        9.9051665882
H                6.4162769344        9.6357854511        9.9052439465
H                6.4162769344        6.9260368189        9.9052439465
H                8.9933946372        6.0886571657        9.9051665882
C                9.2669509870        8.9974699402        6.6362848804
C                7.9040187073        9.4402556274        6.6363894665
C                7.0615287143        8.2809111300        6.6364436943
C                7.9040187073        7.1215666326        6.6363894665
C                9.2669509870        7.5643523198        6.6362848804
H               10.1455453256        9.6357854511        6.6565783135
H                7.5684276228       10.4731651043        6.6566556718
H                5.9756635444        8.2809111300        6.6567078859
H                7.5684276228        6.0886571657        6.6566556718
H               10.1455453256        6.9260368189        6.6565783135



     Writing config-only to output data dir /home/duets/qe_workdirs/ferrocene__ring2_rotation_deg__+36/ferrocene__ring2_rotation_deg__+36.save/ :
     XML data file
     NEW-OLD atomic charge density approx. for the potential

     Check: negative core charge=   -0.000002

     negative rho (up, down):  1.320E-02 0.000E+00

     total cpu time spent up to now is     4255.8 secs

     Self-consistent Calculation

     iteration #  1     ecut=    60.00 Ry     beta= 0.30
     Davidson diagonalization with overlap
     ethr =  1.00E-06,  avg # of iterations =  4.0

     Threshold (ethr) on eigenvalues was too large:
     Diagonalizing with lowered threshold

     Davidson diagonalization with overlap
     ethr =  8.22E-09,  avg # of iterations =  8.0

     negative rho (up, down):  1.321E-02 0.000E+00

     total cpu time spent up to now is     4285.2 secs

     total energy              =    -525.35877810 Ry
     estimated scf accuracy    <       0.00000941 Ry

     iteration #  2     ecut=    60.00 Ry     beta= 0.30
     Davidson diagonalization with overlap
     ethr =  1.43E-08,  avg # of iterations =  4.0

     negative rho (up, down):  1.321E-02 0.000E+00

     total cpu time spent up to now is     4298.7 secs

     total energy              =    -525.35877813 Ry
     estimated scf accuracy    <       0.00000393 Ry

     iteration #  3     ecut=    60.00 Ry     beta= 0.30
     Davidson diagonalization with overlap
     ethr =  5.96E-09,  avg # of iterations =  5.0

     negative rho (up, down):  1.321E-02 0.000E+00

     total cpu time spent up to now is     4315.2 secs

     total energy              =    -525.35877847 Ry
     estimated scf accuracy    <       0.00000178 Ry

     iteration #  4     ecut=    60.00 Ry     beta= 0.30
     Davidson diagonalization with overlap
     ethr =  2.69E-09,  avg # of iterations =  4.0

     negative rho (up, down):  1.321E-02 0.000E+00

     total cpu time spent up to now is     4329.3 secs

     total energy              =    -525.35877885 Ry
     estimated scf accuracy    <       0.00000025 Ry

     iteration #  5     ecut=    60.00 Ry     beta= 0.30
     Davidson diagonalization with overlap
     ethr =  3.77E-10,  avg # of iterations =  7.0

     negative rho (up, down):  1.321E-02 0.000E+00

     total cpu time spent up to now is     4347.8 secs

     total energy              =    -525.35877880 Ry
     estimated scf accuracy    <       0.00000079 Ry

     iteration #  6     ecut=    60.00 Ry     beta= 0.30
     Davidson diagonalization with overlap
     ethr =  3.77E-10,  avg # of iterations =  5.0

     negative rho (up, down):  1.321E-02 0.000E+00

     total cpu time spent up to now is     4362.1 secs

     total energy              =    -525.35877894 Ry
     estimated scf accuracy    <       0.00000008 Ry

     iteration #  7     ecut=    60.00 Ry     beta= 0.30
     Davidson diagonalization with overlap
     ethr =  1.26E-10,  avg # of iterations =  4.0

     negative rho (up, down):  1.321E-02 0.000E+00

     total cpu time spent up to now is     4376.3 secs

     total energy              =    -525.35877895 Ry
     estimated scf accuracy    <       0.00000001 Ry

     iteration #  8     ecut=    60.00 Ry     beta= 0.30
     Davidson diagonalization with overlap
     ethr =  2.02E-11,  avg # of iterations =  7.0

     negative rho (up, down):  1.321E-02 0.000E+00

     total cpu time spent up to now is     4394.7 secs

     total energy              =    -525.35877895 Ry
     estimated scf accuracy    <       0.00000004 Ry

     iteration #  9     ecut=    60.00 Ry     beta= 0.30
     Davidson diagonalization with overlap
     ethr =  2.02E-11,  avg # of iterations =  5.0

     negative rho (up, down):  1.321E-02 0.000E+00

     total cpu time spent up to now is     4408.7 secs

     total energy              =    -525.35877896 Ry
     estimated scf accuracy    <          3.8E-10 Ry

     iteration # 10     ecut=    60.00 Ry     beta= 0.30
     Davidson diagonalization with overlap
     ethr =  5.78E-13,  avg # of iterations =  7.0

     negative rho (up, down):  1.321E-02 0.000E+00

     total cpu time spent up to now is     4428.6 secs

     total energy              =    -525.35877896 Ry
     estimated scf accuracy    <          7.6E-10 Ry

     iteration # 11     ecut=    60.00 Ry     beta= 0.30
     Davidson diagonalization with overlap
     ethr =  5.78E-13,  avg # of iterations =  5.0

     negative rho (up, down):  1.321E-02 0.000E+00

     total cpu time spent up to now is     4442.1 secs

     End of self-consistent calculation

          k = 0.0000 0.0000 0.0000 (120209 PWs)   bands (ev):

   -90.0982 -56.9133 -55.8752 -55.8751 -22.1460 -21.6846 -17.5097 -17.5095
   -17.4873 -17.4871 -13.3431 -13.3427 -13.1327 -13.1323 -13.1292 -12.7898
   -10.1464  -9.9346  -9.9337  -9.6136  -9.6125  -9.1122  -9.1119  -9.0808
    -9.0805  -8.7688  -6.6590  -6.6589  -6.1833  -6.1832  -4.4330  -4.2648
    -4.2647

     highest occupied level (ev):    -4.2647

!    total energy              =    -525.35877896 Ry
     estimated scf accuracy    <          5.5E-11 Ry

     The total energy is the sum of the following terms:
     one-electron contribution =   -2332.75247359 Ry
     hartree contribution      =    1170.52571906 Ry
     xc contribution           =     -88.23373639 Ry
     ewald contribution        =     862.91530488 Ry
     one-center paw contrib.   =    -137.81359292 Ry

     convergence has been achieved in  11 iterations

     negative rho (up, down):  1.321E-02 0.000E+00

     Forces acting on atoms (cartesian axes, Ry/au):

     atom    1 type  2   force =     0.00000000    0.00000000    0.00000000
     atom    2 type  1   force =    -0.00030159    0.00000000    0.00009409
     atom    3 type  1   force =     0.00018540    0.00012307    0.00011238
     atom    4 type  1   force =    -0.00007167   -0.00008115    0.00010857
     atom    5 type  1   force =    -0.00007167    0.00008115    0.00010857
     atom    6 type  1   force =     0.00018540   -0.00012307    0.00011238
     atom    7 type  3   force =     0.00051327    0.00000000   -0.00008105
     atom    8 type  3   force =     0.00008107    0.00025844   -0.00007260
     atom    9 type  3   force =    -0.00028021    0.00021475   -0.00006018
     atom   10 type  3   force =    -0.00028021   -0.00021475   -0.00006018
     atom   11 type  3   force =     0.00008107   -0.00025844   -0.00007260
     atom   12 type  1   force =     0.00007167   -0.00008115   -0.00010857
     atom   13 type  1   force =    -0.00018540    0.00012307   -0.00011238
     atom   14 type  1   force =     0.00030159    0.00000000   -0.00009409
     atom   15 type  1   force =    -0.00018540   -0.00012307   -0.00011238
     atom   16 type  1   force =     0.00007167    0.00008115   -0.00010857
     atom   17 type  3   force =     0.00028021    0.00021475    0.00006018
     atom   18 type  3   force =    -0.00008107    0.00025844    0.00007260
     atom   19 type  3   force =    -0.00051327    0.00000000    0.00008105
     atom   20 type  3   force =    -0.00008107   -0.00025844    0.00007260
     atom   21 type  3   force =     0.00028021   -0.00021475    0.00006018

     Total force =     0.001382     Total SCF correction =     0.000003
     Energy error            =      7.9E-06 Ry
     Gradient error          =      5.1E-04 Ry/Bohr

     number of scf cycles    =  15
     number of bfgs steps    =  13

     energy             old  =    -525.3587710293 Ry
     energy             new  =    -525.3587789586 Ry

     CASE: energy            _new < energy            _old

     new trust radius        =       0.0007569395 bohr
     new conv_thr            =            1.0E-10 Ry


ATOMIC_POSITIONS (angstrom)
Fe               8.2809111300        8.2809111300        8.2809111300
C                9.5001916081        8.2809111300        9.9256755572
C                8.6579354767        9.4403939123        9.9257415780
C                7.2947689487        8.9974748084        9.9258475518
C                7.2947689487        7.5643474516        9.9258475518
C                8.6579354767        7.1214283477        9.9257415780
H               10.5864827931        8.2809111300        9.9048789635
H                8.9934542075       10.4733399651        9.9049390013
H                6.4160985275        9.6359240318        9.9050285620
H                6.4160985275        6.9258982382        9.9050285620
H                8.9934542075        6.0884823049        9.9049390013
C                9.2670533213        8.9974748084        6.6359747082
C                7.9038867833        9.4403939123        6.6360806820
C                7.0616306519        8.2809111300        6.6361467028
C                7.9038867833        7.1214283477        6.6360806820
C                9.2670533213        7.5643474516        6.6359747082
H               10.1457237325        9.6359240318        6.6567936980
H                7.5683680525       10.4733399651        6.6568832587
H                5.9753394669        8.2809111300        6.6569432965
H                7.5683680525        6.0884823049        6.6568832587
H               10.1457237325        6.9258982382        6.6567936980



     Writing config-only to output data dir /home/duets/qe_workdirs/ferrocene__ring2_rotation_deg__+36/ferrocene__ring2_rotation_deg__+36.save/ :
     XML data file
     NEW-OLD atomic charge density approx. for the potential

     Check: negative core charge=   -0.000002

     negative rho (up, down):  1.321E-02 0.000E+00

     total cpu time spent up to now is     4460.4 secs

     Self-consistent Calculation

     iteration #  1     ecut=    60.00 Ry     beta= 0.30
     Davidson diagonalization with overlap
     ethr =  1.00E-06,  avg # of iterations =  2.0

     Threshold (ethr) on eigenvalues was too large:
     Diagonalizing with lowered threshold

     Davidson diagonalization with overlap
     ethr =  1.41E-09,  avg # of iterations =  8.0

     negative rho (up, down):  1.321E-02 0.000E+00

     total cpu time spent up to now is     4488.5 secs

     total energy              =    -525.35878040 Ry
     estimated scf accuracy    <       0.00000078 Ry

     iteration #  2     ecut=    60.00 Ry     beta= 0.30
     Davidson diagonalization with overlap
     ethr =  1.18E-09,  avg # of iterations =  2.0

     negative rho (up, down):  1.321E-02 0.000E+00

     total cpu time spent up to now is     4501.5 secs

     total energy              =    -525.35878031 Ry
     estimated scf accuracy    <       0.00000028 Ry

     iteration #  3     ecut=    60.00 Ry     beta= 0.30
     Davidson diagonalization with overlap
     ethr =  4.26E-10,  avg # of iterations =  5.0

     negative rho (up, down):  1.321E-02 0.000E+00

     total cpu time spent up to now is     4516.1 secs

     total energy              =    -525.35878044 Ry
     estimated scf accuracy    <       0.00000009 Ry

     iteration #  4     ecut=    60.00 Ry     beta= 0.30
     Davidson diagonalization with overlap
     ethr =  1.37E-10,  avg # of iterations =  2.0

     negative rho (up, down):  1.321E-02 0.000E+00

     total cpu time spent up to now is     4532.1 secs

     total energy              =    -525.35878042 Ry
     estimated scf accuracy    <       0.00000005 Ry

     iteration #  5     ecut=    60.00 Ry     beta= 0.30
     Davidson diagonalization with overlap
     ethr =  7.21E-11,  avg # of iterations =  5.0

     negative rho (up, down):  1.321E-02 0.000E+00

     total cpu time spent up to now is     4546.8 secs

     total energy              =    -525.35878043 Ry
     estimated scf accuracy    <       0.00000004 Ry

     iteration #  6     ecut=    60.00 Ry     beta= 0.30
     Davidson diagonalization with overlap
     ethr =  5.50E-11,  avg # of iterations =  7.0

     negative rho (up, down):  1.321E-02 0.000E+00

     total cpu time spent up to now is     4564.1 secs

     total energy              =    -525.35878043 Ry
     estimated scf accuracy    <       0.00000007 Ry

     iteration #  7     ecut=    60.00 Ry     beta= 0.30
     Davidson diagonalization with overlap
     ethr =  5.50E-11,  avg # of iterations =  6.0

     negative rho (up, down):  1.321E-02 0.000E+00

     total cpu time spent up to now is     4579.2 secs

     total energy              =    -525.35878044 Ry
     estimated scf accuracy    <       0.00000012 Ry

     iteration #  8     ecut=    60.00 Ry     beta= 0.30
     Davidson diagonalization with overlap
     ethr =  5.50E-11,  avg # of iterations =  4.0

     negative rho (up, down):  1.321E-02 0.000E+00

     total cpu time spent up to now is     4595.6 secs

     total energy              =    -525.35878044 Ry
     estimated scf accuracy    <       0.00000003 Ry

     iteration #  9     ecut=    60.00 Ry     beta= 0.30
     Davidson diagonalization with overlap
     ethr =  4.80E-11,  avg # of iterations =  5.0

     negative rho (up, down):  1.321E-02 0.000E+00

     total cpu time spent up to now is     4609.2 secs

     total energy              =    -525.35878044 Ry
     estimated scf accuracy    <          5.8E-10 Ry

     iteration # 10     ecut=    60.00 Ry     beta= 0.30
     Davidson diagonalization with overlap
     ethr =  8.82E-13,  avg # of iterations =  6.0

     negative rho (up, down):  1.321E-02 0.000E+00

     total cpu time spent up to now is     4628.4 secs

     total energy              =    -525.35878044 Ry
     estimated scf accuracy    <          6.0E-10 Ry

     iteration # 11     ecut=    60.00 Ry     beta= 0.30
     Davidson diagonalization with overlap
     ethr =  8.82E-13,  avg # of iterations =  2.0

     negative rho (up, down):  1.321E-02 0.000E+00

     total cpu time spent up to now is     4641.8 secs

     total energy              =    -525.35878044 Ry
     estimated scf accuracy    <          2.6E-10 Ry

     iteration # 12     ecut=    60.00 Ry     beta= 0.30
     Davidson diagonalization with overlap
     ethr =  3.91E-13,  avg # of iterations =  5.0

     negative rho (up, down):  1.321E-02 0.000E+00

     total cpu time spent up to now is     4655.8 secs

     End of self-consistent calculation

          k = 0.0000 0.0000 0.0000 (120209 PWs)   bands (ev):

   -90.0978 -56.9128 -55.8747 -55.8746 -22.1445 -21.6835 -17.5092 -17.5086
   -17.4869 -17.4863 -13.3426 -13.3422 -13.1322 -13.1319 -13.1278 -12.7887
   -10.1458  -9.9328  -9.9328  -9.6126  -9.6126  -9.1123  -9.1113  -9.0808
    -9.0799  -8.7690  -6.6599  -6.6590  -6.1835  -6.1826  -4.4325  -4.2640
    -4.2638

     highest occupied level (ev):    -4.2638

!    total energy              =    -525.35878044 Ry
     estimated scf accuracy    <          9.7E-11 Ry

     The total energy is the sum of the following terms:
     one-electron contribution =   -2332.56619648 Ry
     hartree contribution      =    1170.43194886 Ry
     xc contribution           =     -88.23097561 Ry
     ewald contribution        =     862.81995402 Ry
     one-center paw contrib.   =    -137.81351123 Ry

     convergence has been achieved in  12 iterations

     negative rho (up, down):  1.321E-02 0.000E+00

     Forces acting on atoms (cartesian axes, Ry/au):

     atom    1 type  2   force =     0.00000000    0.00000000    0.00000000
     atom    2 type  1   force =     0.00042086    0.00000000   -0.00000678
     atom    3 type  1   force =    -0.00020466   -0.00009694   -0.00002299
     atom    4 type  1   force =     0.00008448    0.00006970   -0.00001458
     atom    5 type  1   force =     0.00008448   -0.00006970   -0.00001458
     atom    6 type  1   force =    -0.00020466    0.00009694   -0.00002299
     atom    7 type  3   force =    -0.00005005    0.00000000   -0.00002800
     atom    8 type  3   force =     0.00008844    0.00020802   -0.00002330
     atom    9 type  3   force =    -0.00012388    0.00008783   -0.00001278
     atom   10 type  3   force =    -0.00012388   -0.00008783   -0.00001278
     atom   11 type  3   force =     0.00008844   -0.00020802   -0.00002330
     atom   12 type  1   force =    -0.00008448    0.00006970    0.00001458
     atom   13 type  1   force =     0.00020466   -0.00009694    0.00002299
     atom   14 type  1   force =    -0.00042086    0.00000000    0.00000678
     atom   15 type  1   force =     0.00020466    0.00009694    0.00002299
     atom   16 type  1   force =    -0.00008448   -0.00006970    0.00001458
     atom   17 type  3   force =     0.00012388    0.00008783    0.00001278
     atom   18 type  3   force =    -0.00008844    0.00020802    0.00002330
     atom   19 type  3   force =     0.00005005    0.00000000    0.00002800
     atom   20 type  3   force =    -0.00008844   -0.00020802    0.00002330
     atom   21 type  3   force =     0.00012388   -0.00008783    0.00001278

     Total force =     0.000957     Total SCF correction =     0.000012
     Energy error            =      1.5E-06 Ry
     Gradient error          =      4.2E-04 Ry/Bohr

     number of scf cycles    =  16
     number of bfgs steps    =  14

     energy             old  =    -525.3587789586 Ry
     energy             new  =    -525.3587804438 Ry

     CASE: energy            _new < energy            _old

     new trust radius        =       0.0007631077 bohr
     new conv_thr            =            1.0E-10 Ry


ATOMIC_POSITIONS (angstrom)
Fe               8.2809111300        8.2809111300        8.2809111300
C                9.5003881683        8.2809111300        9.9255737319
C                8.6578959384        9.4404166103        9.9256361124
C                7.2947425848        8.9975457066        9.9257476102
C                7.2947425848        7.5642765534        9.9257476102
C                8.6578959384        7.1214056497        9.9256361124
H               10.5865948747        8.2809111300        9.9045211668
H                8.9935249192       10.4735233922        9.9045862630
H                6.4159681415        9.6360206350        9.9046852191
H                6.4159681415        6.9258016350        9.9046852191
H                8.9935249192        6.0882988778        9.9045862630
C                9.2670796852        8.9975457066        6.6360746498
C                7.9039263216        9.4404166103        6.6361861476
C                7.0614340917        8.2809111300        6.6362485281
C                7.9039263216        7.1214056497        6.6361861476
C                9.2670796852        7.5642765534        6.6360746498
H               10.1458541185        9.6360206350        6.6571370409
H                7.5682973408       10.4735233922        6.6572359970
H                5.9752273853        8.2809111300        6.6573010932
H                7.5682973408        6.0882988778        6.6572359970
H               10.1458541185        6.9258016350        6.6571370409



     Writing config-only to output data dir /home/duets/qe_workdirs/ferrocene__ring2_rotation_deg__+36/ferrocene__ring2_rotation_deg__+36.save/ :
     XML data file
     NEW-OLD atomic charge density approx. for the potential

     Check: negative core charge=   -0.000002

     negative rho (up, down):  1.321E-02 0.000E+00

     total cpu time spent up to now is     4674.6 secs

     Self-consistent Calculation

     iteration #  1     ecut=    60.00 Ry     beta= 0.30
     Davidson diagonalization with overlap
     ethr =  1.00E-06,  avg # of iterations =  2.0

     Threshold (ethr) on eigenvalues was too large:
     Diagonalizing with lowered threshold

     Davidson diagonalization with overlap
     ethr =  4.31E-10,  avg # of iterations =  9.0

     negative rho (up, down):  1.321E-02 0.000E+00

     total cpu time spent up to now is     4703.6 secs

     total energy              =    -525.35878091 Ry
     estimated scf accuracy    <       0.00000057 Ry

     iteration #  2     ecut=    60.00 Ry     beta= 0.30
     Davidson diagonalization with overlap
     ethr =  8.60E-10,  avg # of iterations =  5.0

     negative rho (up, down):  1.321E-02 0.000E+00

     total cpu time spent up to now is     4717.6 secs

     total energy              =    -525.35878088 Ry
     estimated scf accuracy    <       0.00000055 Ry

     iteration #  3     ecut=    60.00 Ry     beta= 0.30
     Davidson diagonalization with overlap
     ethr =  8.41E-10,  avg # of iterations =  5.0

     negative rho (up, down):  1.321E-02 0.000E+00

     total cpu time spent up to now is     4734.3 secs

     total energy              =    -525.35878091 Ry
     estimated scf accuracy    <       0.00000020 Ry

     iteration #  4     ecut=    60.00 Ry     beta= 0.30
     Davidson diagonalization with overlap
     ethr =  3.05E-10,  avg # of iterations =  4.0

     negative rho (up, down):  1.321E-02 0.000E+00

     total cpu time spent up to now is     4748.3 secs

     total energy              =    -525.35878095 Ry
     estimated scf accuracy    <       0.00000003 Ry

     iteration #  5     ecut=    60.00 Ry     beta= 0.30
     Davidson diagonalization with overlap
     ethr =  4.59E-11,  avg # of iterations =  4.0

     negative rho (up, down):  1.321E-02 0.000E+00

     total cpu time spent up to now is     4762.3 secs

     total energy              =    -525.35878095 Ry
     estimated scf accuracy    <       0.00000002 Ry

     iteration #  6     ecut=    60.00 Ry     beta= 0.30
     Davidson diagonalization with overlap
     ethr =  3.26E-11,  avg # of iterations =  5.0

     negative rho (up, down):  1.321E-02 0.000E+00

     total cpu time spent up to now is     4779.3 secs

     total energy              =    -525.35878095 Ry
     estimated scf accuracy    <       0.00000003 Ry

     iteration #  7     ecut=    60.00 Ry     beta= 0.30
     Davidson diagonalization with overlap
     ethr =  3.26E-11,  avg # of iterations =  4.0

     negative rho (up, down):  1.321E-02 0.000E+00

     total cpu time spent up to now is     4793.4 secs

     total energy              =    -525.35878095 Ry
     estimated scf accuracy    <          9.8E-09 Ry

     iteration #  8     ecut=    60.00 Ry     beta= 0.30
     Davidson diagonalization with overlap
     ethr =  1.49E-11,  avg # of iterations =  2.0

     negative rho (up, down):  1.321E-02 0.000E+00

     total cpu time spent up to now is     4810.3 secs

     total energy              =    -525.35878095 Ry
     estimated scf accuracy    <          5.8E-09 Ry

     iteration #  9     ecut=    60.00 Ry     beta= 0.30
     Davidson diagonalization with overlap
     ethr =  8.72E-12,  avg # of iterations =  5.0

     negative rho (up, down):  1.321E-02 0.000E+00

     total cpu time spent up to now is     4826.5 secs

     total energy              =    -525.35878095 Ry
     estimated scf accuracy    <          1.2E-09 Ry

     iteration # 10     ecut=    60.00 Ry     beta= 0.30
     Davidson diagonalization with overlap
     ethr =  1.75E-12,  avg # of iterations =  2.0

     negative rho (up, down):  1.321E-02 0.000E+00

     total cpu time spent up to now is     4842.7 secs

     total energy              =    -525.35878095 Ry
     estimated scf accuracy    <          7.6E-10 Ry

     iteration # 11     ecut=    60.00 Ry     beta= 0.30
     Davidson diagonalization with overlap
     ethr =  1.15E-12,  avg # of iterations =  6.0

     negative rho (up, down):  1.321E-02 0.000E+00

     total cpu time spent up to now is     4857.8 secs

     total energy              =    -525.35878095 Ry
     estimated scf accuracy    <          5.9E-10 Ry

     iteration # 12     ecut=    60.00 Ry     beta= 0.30
     Davidson diagonalization with overlap
     ethr =  8.98E-13,  avg # of iterations =  2.0

     negative rho (up, down):  1.321E-02 0.000E+00

     total cpu time spent up to now is     4873.9 secs

     End of self-consistent calculation

          k = 0.0000 0.0000 0.0000 (120209 PWs)   bands (ev):

   -90.0981 -56.9129 -55.8750 -55.8749 -22.1437 -21.6826 -17.5088 -17.5083
   -17.4865 -17.4861 -13.3422 -13.3421 -13.1317 -13.1316 -13.1272 -12.7879
   -10.1454  -9.9328  -9.9322  -9.6128  -9.6121  -9.1118  -9.1116  -9.0803
    -9.0801  -8.7683  -6.6598  -6.6595  -6.1834  -6.1831  -4.4326  -4.2644
    -4.2643

     highest occupied level (ev):    -4.2643

!    total energy              =    -525.35878095 Ry
     estimated scf accuracy    <          5.1E-11 Ry

     The total energy is the sum of the following terms:
     one-electron contribution =   -2332.56364185 Ry
     hartree contribution      =    1170.43020402 Ry
     xc contribution           =     -88.22958200 Ry
     ewald contribution        =     862.81770368 Ry
     one-center paw contrib.   =    -137.81346480 Ry

     convergence has been achieved in  12 iterations

     negative rho (up, down):  1.321E-02 0.000E+00

     Forces acting on atoms (cartesian axes, Ry/au):

     atom    1 type  2   force =     0.00000000    0.00000000    0.00000000
     atom    2 type  1   force =    -0.00005226    0.00000000   -0.00003179
     atom    3 type  1   force =     0.00004679    0.00005059   -0.00002515
     atom    4 type  1   force =    -0.00000802   -0.00003922   -0.00002498
     atom    5 type  1   force =    -0.00000802    0.00003922   -0.00002498
     atom    6 type  1   force =     0.00004679   -0.00005059   -0.00002515
     atom    7 type  3   force =     0.00004230    0.00000000   -0.00000916
     atom    8 type  3   force =    -0.00000210   -0.00002187   -0.00000214
     atom    9 type  3   force =    -0.00000677    0.00001177    0.00000902
     atom   10 type  3   force =    -0.00000677   -0.00001177    0.00000902
     atom   11 type  3   force =    -0.00000210    0.00002187   -0.00000214
     atom   12 type  1   force =     0.00000802   -0.00003922    0.00002498
     atom   13 type  1   force =    -0.00004679    0.00005059    0.00002515
     atom   14 type  1   force =     0.00005226    0.00000000    0.00003179
     atom   15 type  1   force =    -0.00004679   -0.00005059    0.00002515
     atom   16 type  1   force =     0.00000802    0.00003922    0.00002498
     atom   17 type  3   force =     0.00000677    0.00001177   -0.00000902
     atom   18 type  3   force =     0.00000210   -0.00002187    0.00000214
     atom   19 type  3   force =    -0.00004230    0.00000000    0.00000916
     atom   20 type  3   force =     0.00000210    0.00002187    0.00000214
     atom   21 type  3   force =     0.00000677   -0.00001177   -0.00000902

     Total force =     0.000211     Total SCF correction =     0.000016
     Energy error            =      5.1E-07 Ry
     Gradient error          =      5.2E-05 Ry/Bohr

     bfgs converged in  17 scf cycles and  15 bfgs steps
     (criteria: energy <  1.0E-05 Ry, force <  1.0E-04 Ry/Bohr)

     End of BFGS Geometry Optimization

     Final energy             =    -525.3587809538 Ry

     File /home/duets/qe_workdirs/ferrocene__ring2_rotation_deg__+36/ferrocene__ring2_rotation_deg__+36.bfgs deleted, as requested
Begin final coordinates

ATOMIC_POSITIONS (angstrom)
Fe               8.2809111300        8.2809111300        8.2809111300
C                9.5003881683        8.2809111300        9.9255737319
C                8.6578959384        9.4404166103        9.9256361124
C                7.2947425848        8.9975457066        9.9257476102
C                7.2947425848        7.5642765534        9.9257476102
C                8.6578959384        7.1214056497        9.9256361124
H               10.5865948747        8.2809111300        9.9045211668
H                8.9935249192       10.4735233922        9.9045862630
H                6.4159681415        9.6360206350        9.9046852191
H                6.4159681415        6.9258016350        9.9046852191
H                8.9935249192        6.0882988778        9.9045862630
C                9.2670796852        8.9975457066        6.6360746498
C                7.9039263216        9.4404166103        6.6361861476
C                7.0614340917        8.2809111300        6.6362485281
C                7.9039263216        7.1214056497        6.6361861476
C                9.2670796852        7.5642765534        6.6360746498
H               10.1458541185        9.6360206350        6.6571370409
H                7.5682973408       10.4735233922        6.6572359970
H                5.9752273853        8.2809111300        6.6573010932
H                7.5682973408        6.0882988778        6.6572359970
H               10.1458541185        6.9258016350        6.6571370409
End final coordinates



     Writing all to output data dir /home/duets/qe_workdirs/ferrocene__ring2_rotation_deg__+36/ferrocene__ring2_rotation_deg__+36.save/ :
     XML data file, charge density, pseudopotentials, collected wavefunctions

     init_run     :      6.73s CPU     10.07s WALL (       1 calls)
     electrons    :   2883.88s CPU   4599.83s WALL (      17 calls)
     update_pot   :     27.72s CPU     39.18s WALL (      16 calls)
     forces       :     87.58s CPU    154.68s WALL (      17 calls)

     Called by init_run:
     wfcinit      :      1.44s CPU      1.55s WALL (       1 calls)
     potinit      :      1.93s CPU      2.65s WALL (       1 calls)
     hinit0       :      0.88s CPU      1.19s WALL (       1 calls)

     Called by electrons:
     c_bands      :    813.59s CPU    992.12s WALL (     296 calls)
     sum_band     :   1049.42s CPU   1652.36s WALL (     296 calls)
     v_of_rho     :    325.36s CPU    540.15s WALL (     304 calls)
     newd         :    549.25s CPU   1288.31s WALL (     304 calls)
     PAW_pot      :     71.89s CPU     75.60s WALL (     320 calls)
     mix_rho      :     74.70s CPU     87.83s WALL (     296 calls)

     Called by c_bands:
     init_us_2    :     17.73s CPU     22.02s WALL (     626 calls)
     regterg      :    792.99s CPU    971.47s WALL (     296 calls)

     Called by *egterg:
     rdiaghg      :      2.58s CPU      4.58s WALL (    1598 calls)
     h_psi        :    667.84s CPU    791.08s WALL (    1624 calls)
     s_psi        :     22.63s CPU     20.55s WALL (    1624 calls)
     g_psi        :      2.22s CPU      1.82s WALL (    1327 calls)

     Called by h_psi:
     h_psi:calbec :     32.37s CPU     54.73s WALL (    1624 calls)
     vloc_psi     :    608.12s CPU    707.04s WALL (    1624 calls)
     add_vuspsi   :     23.97s CPU     25.93s WALL (    1624 calls)

     General routines
     calbec       :     43.48s CPU     76.02s WALL (    2004 calls)
     fft          :    279.73s CPU    439.44s WALL (    3505 calls)
     ffts         :     18.36s CPU     30.98s WALL (     600 calls)
     fftw         :    453.52s CPU    554.29s WALL (   36752 calls)
     interpolate  :     37.33s CPU     50.76s WALL (     304 calls)

     Parallel routines

     PWSCF        :  50m42.69s CPU      1h21m WALL


   This run was terminated on:   2:43:58  30Jun2026            

=------------------------------------------------------------------------------=
   JOB DONE.
=------------------------------------------------------------------------------=
